(written by ASE)

40 atoms
2 atom types

60 bonds
1 bond types

120 angles
2 angle types

0.0      17.565827990366017  xlo xhi
0.0        8.60358474668684  ylo yhi
0.0      6.6609999999999996  zlo zhi
     6.9398489121935008                       0                       0  xy xz yz

Masses

     1                  10.811 # _
     2      14.006999999999998 # _

Atoms # full

     1   1   1   0.0   0.0067038772874856234    0.062796009157676691                       0
     2   1   2   0.0      1.7425944200818926     0.76128838358441631                       0
     3   1   1   0.0      3.5198694747107435    0.062796009210651538                       0
     4   1   2   0.0      5.2557600170998517     0.76128838374950514                       0
     5   1   1   0.0      7.0330350736819813    0.062796009329613517                       0
     6   1   2   0.0      8.7689256175903907     0.76128838393596354                       0
     7   1   1   0.0      10.546200673148363    0.062796009362004052                       0
     8   1   2   0.0       12.28209121785091     0.76128838388210252                       0
     9   1   1   0.0      14.059366270793166    0.062796009309359177                       0
    10   1   2   0.0      15.795256814656636     0.76128838367294205                       0
    11   1   1   0.0      1.7416661050904871      2.2136921958728286                       0
    12   1   2   0.0      3.4775566472947075      2.9121845703528608                       0
    13   1   1   0.0      5.2548317020713915       2.213692195874009                       0
    14   1   2   0.0      6.9907222457414724      2.9121845704348766                       0
    15   1   1   0.0      8.7679973027266342      2.2136921959336684                       0
    16   1   2   0.0      10.503887847417335      2.9121845705275842                       0
    17   1   1   0.0      12.281162903070475      2.2136921960489664                       0
    18   1   2   0.0      14.017053445939332      2.9121845704851803                       0
    19   1   1   0.0      15.794328499817771       2.213692195973135                       0
    20   1   2   0.0      17.530219041812114      2.9121845703820668                       0
    21   1   1   0.0      3.4766283322937896      4.3645883826132348                       0
    22   1   2   0.0      5.2125188748855384      5.0630807570063237                       0
    23   1   1   0.0      6.9897939307191361        4.36458838245865                       0
    24   1   2   0.0      8.7256844743892987      5.0630807570458281                       0
    25   1   1   0.0      10.502959532321077      4.3645883825369394                       0
    26   1   2   0.0      12.238850074906511      5.0630807571910017                       0
    27   1   1   0.0      14.016125130891812      4.3645883827225358                       0
    28   1   2   0.0      15.752015672716549      5.0630807572059187                       0
    29   1   1   0.0      17.529290726806078      4.3645883827236842                       0
    30   1   2   0.0      19.265181268724458      5.0630807571174428                       0
    31   1   1   0.0      5.2115905600852797       6.515484569192175                       0
    32   1   2   0.0      6.9474811042679381      7.2139769436236261                       0
    33   1   1   0.0      8.7247561593232454      6.5154845691040393                       0
    34   1   2   0.0      10.460646702128949       7.213976943755946                       0
    35   1   1   0.0      12.237921759615112      6.5154845693166026                       0
    36   1   2   0.0      13.973812301111767      7.2139769439224981                       0
    37   1   1   0.0      15.751087357627807      6.5154845694357517                       0
    38   1   2   0.0      17.486977900180637      7.2139769438855641                       0
    39   1   1   0.0       19.26425295385781      6.5154845693903649                       0
    40   1   2   0.0       21.00014349760071        7.21397694373902                       0

Bonds

  1   1   1   2
  2   1   1  10
  3   1   1  32
  4   1   2   3
  5   1   2  11
  6   1   3   4
  7   1   3  34
  8   1   4   5
  9   1   4  13
 10   1   5   6
 11   1   5  36
 12   1   6   7
 13   1   6  15
 14   1   7   8
 15   1   7  38
 16   1   8   9
 17   1   8  17
 18   1   9  10
 19   1   9  40
 20   1  10  19
 21   1  11  12
 22   1  11  20
 23   1  12  13
 24   1  12  21
 25   1  13  14
 26   1  14  15
 27   1  14  23
 28   1  15  16
 29   1  16  17
 30   1  16  25
 31   1  17  18
 32   1  18  19
 33   1  18  27
 34   1  19  20
 35   1  20  29
 36   1  21  22
 37   1  21  30
 38   1  22  23
 39   1  22  31
 40   1  23  24
 41   1  24  25
 42   1  24  33
 43   1  25  26
 44   1  26  27
 45   1  26  35
 46   1  27  28
 47   1  28  29
 48   1  28  37
 49   1  29  30
 50   1  30  39
 51   1  31  32
 52   1  31  40
 53   1  32  33
 54   1  33  34
 55   1  34  35
 56   1  35  36
 57   1  36  37
 58   1  37  38
 59   1  38  39
 60   1  39  40

Angles

  1   2   2   1  10
  2   2   2   1  32
  3   2  10   1  32
  4   1   1   2   3
  5   1   1   2  11
  6   1   3   2  11
  7   2   2   3   4
  8   2   2   3  34
  9   2   4   3  34
 10   1   3   4   5
 11   1   3   4  13
 12   1   5   4  13
 13   2   4   5   6
 14   2   4   5  36
 15   2   6   5  36
 16   1   5   6   7
 17   1   5   6  15
 18   1   7   6  15
 19   2   6   7   8
 20   2   6   7  38
 21   2   8   7  38
 22   1   7   8   9
 23   1   7   8  17
 24   1   9   8  17
 25   2   8   9  10
 26   2   8   9  40
 27   2  10   9  40
 28   1   1  10   9
 29   1   1  10  19
 30   1   9  10  19
 31   2   2  11  12
 32   2   2  11  20
 33   2  12  11  20
 34   1  11  12  13
 35   1  11  12  21
 36   1  13  12  21
 37   2   4  13  12
 38   2   4  13  14
 39   2  12  13  14
 40   1  13  14  15
 41   1  13  14  23
 42   1  15  14  23
 43   2   6  15  14
 44   2   6  15  16
 45   2  14  15  16
 46   1  15  16  17
 47   1  15  16  25
 48   1  17  16  25
 49   2   8  17  16
 50   2   8  17  18
 51   2  16  17  18
 52   1  17  18  19
 53   1  17  18  27
 54   1  19  18  27
 55   2  10  19  18
 56   2  10  19  20
 57   2  18  19  20
 58   1  11  20  19
 59   1  11  20  29
 60   1  19  20  29
 61   2  12  21  22
 62   2  12  21  30
 63   2  22  21  30
 64   1  21  22  23
 65   1  21  22  31
 66   1  23  22  31
 67   2  14  23  22
 68   2  14  23  24
 69   2  22  23  24
 70   1  23  24  25
 71   1  23  24  33
 72   1  25  24  33
 73   2  16  25  24
 74   2  16  25  26
 75   2  24  25  26
 76   1  25  26  27
 77   1  25  26  35
 78   1  27  26  35
 79   2  18  27  26
 80   2  18  27  28
 81   2  26  27  28
 82   1  27  28  29
 83   1  27  28  37
 84   1  29  28  37
 85   2  20  29  28
 86   2  20  29  30
 87   2  28  29  30
 88   1  21  30  29
 89   1  21  30  39
 90   1  29  30  39
 91   2  22  31  32
 92   2  22  31  40
 93   2  32  31  40
 94   1   1  32  31
 95   1   1  32  33
 96   1  31  32  33
 97   2  24  33  32
 98   2  24  33  34
 99   2  32  33  34
100   1   3  34  33
101   1   3  34  35
102   1  33  34  35
103   2  26  35  34
104   2  26  35  36
105   2  34  35  36
106   1   5  36  35
107   1   5  36  37
108   1  35  36  37
109   2  28  37  36
110   2  28  37  38
111   2  36  37  38
112   1   7  38  37
113   1   7  38  39
114   1  37  38  39
115   2  30  39  38
116   2  30  39  40
117   2  38  39  40
118   1   9  40  31
119   1   9  40  39
120   1  31  40  39
