LAMMPS (10 Sep 2025)
# SimuGlue hBN Template
units           metal
atom_style      full

# Styles MUST be defined before read_data for molecular systems
pair_style      zero 10.0
bond_style      morse
angle_style     quartic
dihedral_style harmonic

# Simulation variables
variable etol equal 0.0
variable ftol equal
The 'box' command has been removed and will be ignored

Reading data file ...
  triclinic box = (0 0 0) to (13.796834 8.5944461 6.661) with tilt (5.4450173 0 0)
WARNING: Triclinic box skew is large. LAMMPS will run inefficiently. (../domain.cpp:221)
  1 by 1 by 1 MPI processor grid
  reading atoms ...
  40 atoms
  scanning bonds ...
  3 = max bonds/atom
  scanning angles ...
  3 = max angles/atom
  triclinic box = (0 0 0) to (13.796834 8.5944461 6.661) with tilt (5.4450173 0 0)
WARNING: Triclinic box skew is large. LAMMPS will run inefficiently. (../domain.cpp:221)
  1 by 1 by 1 MPI processor grid
  reading bonds ...
  60 bonds
  reading angles ...
  120 angles
Finding 1-2 1-3 1-4 neighbors ...
  special bond factors lj:    0        0        0       
  special bond factors coul:  0        0        0       
     3 = max # of 1-2 neighbors
     6 = max # of 1-3 neighbors
    18 = max # of 1-4 neighbors
    18 = max # of special neighbors
  special bonds CPU = 0.000 seconds
  read_data CPU = 0.006 seconds
Generated 0 of 1 mixed pair_coeff terms from geometric mixing rule
Neighbor list info ...
  update: every = 1 steps, delay = 0 steps, check = yes
  max neighbors/atom: 2000, page size: 100000
  master list distance cutoff = 11
  ghost atom cutoff = 11
  1 neighbor lists, perpetual/occasional/extra = 1 0 0
  (1) pair zero, perpetual
      attributes: half, newton on
      pair build: half/nsq/newton/tri
      stencil: none
      bin: none
Setting up cg style minimization ...
  Unit style    : metal
  Current step  : 0
WARNING: Energy due to 3 extra global DOFs will be included in minimizer energies
 (../min.cpp:222)
WARNING: Inconsistent image flags
For more information see https://docs.lammps.org/err0027 (../domain.cpp:1052)
WARNING: Bond/angle/dihedral extent > half of periodic box length (../domain.cpp:1174)
Per MPI rank memory allocation (min/avg/max) = 9.393 | 9.393 | 9.393 Mbytes
   Step          Temp          PotEng         Press           Pxx            Pyy            Pzz            Pxy            Pxz            Pyz             Lx             Ly             Lz           Volume    
         0   0              7.6653295     -115597.89     -332761.3      -14032.361      0              10706.141      0              0              13.796834      8.5944461      6.661          789.83569    
         1   0              7.6647837     -115473.74     -332759.43     -13661.776      0              10788.375      0              0              13.796834      8.5935867      6.661          789.7567     
         2   0              7.6642518     -115349.67     -332757.32     -13291.678      0              10870.644      0              0              13.796834      8.5927272      6.661          789.67772    
         3   0              7.6637336     -115225.68     -332754.94     -12922.104      0              10952.949      0              0              13.796834      8.5918678      6.661          789.59873    
         4   0              7.6632285     -115101.8      -332752.3      -12553.099      0              11035.293      0              0              13.796834      8.5910083      6.661          789.51975    
         5   0              7.6627362     -114978.02     -332749.36     -12184.708      0              11117.677      0              0              13.796834      8.5901489      6.661          789.44077    
         6   0              7.6622561     -114854.37     -332746.12     -11816.98       0              11200.103      0              0              13.796834      8.5892895      6.661          789.36178    
         7   0              7.6617878     -114730.85     -332742.57     -11449.969      0              11282.574      0              0              13.796834      8.58843        6.661          789.2828     
         8   0              7.6613307     -114607.47     -332738.68     -11083.735      0              11365.092      0              0              13.796834      8.5875706      6.661          789.20382    
         9   0              7.6608842     -114484.26     -332734.44     -10718.341      0              11447.659      0              0              13.796834      8.5867111      6.661          789.12483    
        10   0              7.6604475     -114361.23     -332729.82     -10353.857      0              11530.279      0              0              13.796834      8.5858517      6.661          789.04585    
        11   0              7.6600201     -114238.39     -332724.81     -9990.3599      0              11612.954      0              0              13.796834      8.5849922      6.661          788.96687    
        12   0              7.6596011     -114115.77     -332719.37     -9627.9335      0              11695.687      0              0              13.796834      8.5841328      6.661          788.88788    
        13   0              7.6591896     -113993.38     -332713.48     -9266.6705      0              11778.484      0              0              13.796834      8.5832733      6.661          788.8089     
        14   0              7.6587847     -113871.26     -332707.11     -8906.673       0              11861.347      0              0              13.796834      8.5824139      6.661          788.72992    
        15   0              7.6583853     -113749.43     -332700.23     -8548.0544      0              11944.282      0              0              13.796834      8.5815545      6.661          788.65093    
        16   0              7.6579902     -113627.91     -332692.79     -8190.9404      0              12027.293      0              0              13.796834      8.580695       6.661          788.57195    
        17   0              7.6575982     -113506.75     -332684.76     -7835.4714      0              12110.386      0              0              13.796834      8.5798356      6.661          788.49296    
        18   0              7.6572079     -113385.97     -332676.09     -7481.8042      0              12193.568      0              0              13.796834      8.5789761      6.661          788.41398    
        19   0              7.6568175     -113265.61     -332666.73     -7130.1151      0              12276.846      0              0              13.796834      8.5781167      6.661          788.335      
        20   0              7.6564253     -113145.74     -332656.61     -6780.6028      0              12360.227      0              0              13.796834      8.5772572      6.661          788.25601    
        21   0              7.6560293     -113026.39     -332645.67     -6433.4925      0              12443.721      0              0              13.796834      8.5763978      6.661          788.17703    
        22   0              7.6556271     -112907.62     -332633.83     -6089.0399      0              12527.338      0              0              13.796834      8.5755383      6.661          788.09805    
        23   0              7.6552162     -112789.52     -332621.01     -5747.5375      0              12611.09       0              0              13.796834      8.5746789      6.661          788.01906    
        24   0              7.6547936     -112672.14     -332607.1      -5409.3209      0              12694.991      0              0              13.796834      8.5738195      6.661          787.94008    
        25   0              7.6543558     -112555.59     -332591.99     -5074.7777      0              12779.056      0              0              13.796834      8.57296        6.661          787.8611     
        26   0              7.6538989     -112439.97     -332575.54     -4744.3571      0              12863.302      0              0              13.796834      8.5721006      6.661          787.78211    
        27   0              7.6534184     -112325.39     -332557.6      -4418.5833      0              12947.752      0              0              13.796834      8.5712411      6.661 661          788.17703    
        22   0              7.6556271     -112907.62     -332633.83     -6089.0399      0              12527.338      0              0              13.796834      8.5755383      6.661          788.09805    
        23   0              7.6552162     -112789.52     -33245     -3783.5452      0              13117.365      0              0              13.796834      8.5695222      6.661          787.54516    
        30   0              7.6517779     -111989.54     -332492.76     -3475.8647      0              13202.59       0              0              13.796834      8.5686628      6.661          787.46618    
        31   0              7.6511404     -111880.88     -332466.6      -3176.0524      0              13288.148      0              0              13.796834      8.5678033      6.661          787.38719    
        32   0              7.6504423     -111774.31     -332437.6      -2885.3303      0              13374.087      0              0              13.796834      8.5669439      6.661          787.30821    
        33   0              7.6496717     -111670.16     -332405.32     -2605.1602      0              13460.466      0              0              13.796834      8.5660845      6.661          787.22923    
        34   0              7.648815      -111568.84     -332369.22     -2337.2884      0              13547.354      0              0              13.796834      8.565225       6.661          787.15024    
        35   0              7.6478562     -111470.82     -332328.66     -2083.7859      0              13634.834      0              0              13.796834      8.5643656      6.661          787.07126    
        36   0              7.6467776     -111376.66     -332282.92     -1847.0696      0              13723.003      0              0              13.796834      8.5635061      6.661          786.99228    
        37   0              7.6455598     -111287        -332231.14     -1629.8742      0              13811.971      0              0              13.796834      8.5626467      6.661          786.91329    
        38   0              7.6441837     -111202.51     -332172.42     -1435.1183      0              13901.854      0              0              13.796834      8.5617872      6.661          786.83431    
        39   0              7.6426333     -111123.82     -332105.88     -1265.5887      0              13992.768      0              0              13.796834      8.5609278      6.661          786.75533    
        40   0              7.6409011     -111051.4      -332030.85     -1123.3696      0              14084.797      0              0              13.796834      8.5600683      6.661          786.67634    
        41   0              7.6389941     -110985.38     -331947.09     -1009.0491      0              14177.973      0              0              13.796834      8.5592089      6.661          786.59736    
        42   0              7.6369383     -110925.35     -331855.06     -920.98999      0              14272.236      0              0              13.796834      8.5583495      6.661          786.51838    
        43   0              7.6347779     -110870.37     -331755.9      -855.20725      0              14367.437      0              0              13.796834      8.55749        6.661          786.43939    
        44   0              7.6325662     -110819.15     -331651.24     -806.21662      0              14463.367      0              0              13.796834      8.5566306      6.661          786.36041    
        45   0              7.6303531     -110770.4      -331542.74     -768.47174      0              14559.812      0              0              13.796834      8.5557711      6.661          786.28142    
        46   0              7.6281767     -110723.09     -331431.76     -737.50365      0              14656.599      0              0              13.796834      8.5549117      6.661          786.20244    
        47   0              7.6260617     -110676.5      -331319.21     -710.28069      0              14753.608      0              0              13.796834      8.5540522      6.661          786.12346    
        48   0              7.6240221     -110630.22     -331205.66     -684.98988      0              14850.767      0              0              13.796834      8.5531928      6.661          786.04447    
        49   0              7.6220654     -110584.01     -331091.39     -660.64142      0              14948.035      0              0              13.796834      8.5523333      6.661          785.96549    
        50   0              7.6201952     -110537.77     -330976.58     -636.73071      0              15045.39       0              0              13.796834      8.5514739      6.661          785.88651    
        51   0              7.6184131     -110491.43     -330861.29     -613.01462      0              15142.819      0              0              13.796834      8.5506145      6.661          785.80752    
        52   0              7.6167197     -110444.98     -330745.56     -589.38193      0              15240.315      0              0              13.796834      8.549755       6.661          785.72854    
        53   0              7.6151153     -110398.4      -330629.42     -565.7844       0              15337.873      0              0              13.796834      8.5488956      6.661          785.64956    
        54   0              7.6135999     -110351.69     -330512.87     -542.20225      0              15435.488      0              0              13.796834      8.5480361      6.661          785.57057    
        55   0              7.6121734     -110304.84     -330395.91     -518.62787      0              15533.156      0              0              13.796834      8.5471767      6.661          785.49159    
        56   0              7.6108358     -110257.87     -330278.55     -495.05854      0              15630.873      0              0              13.796834      8.5463172      6.661          785.41261    
        57   0              7.609587      -110210.76     -330160.79     -471.49335      0              15728.633      0              0              13.796834      8.5454578      6.661          785.33362    
        58   0              7.6084269     -110163.52     -330042.63     -447.93201      0              15826.431      0              0              13.796834      8.5445983      6.661          785.25464    
        59   0              7.6073554     -110116.15     -329924.09     -424.37443      0              15924.262      0              0              13.796834      8.5437389      6.661          785.17565    
        60   0              7.6063724     -110068.66     -329805.15     -400.82058      0              16022.12       0              0              13.796834      8.5428795      6.661          785.09667    
        61   0              7.6054778     -110021.04     -329685.84     -377.27043      0              16119.997      0              0              13.796834      8.54202        6.661          785.01769    
        62   0              7.6046715     -109973.29     -329566.14     -353.72396      0              16217.886      0              0              13.796834      8.5411606      6.661          784.9387     
        63   0              7.6039534     -109925.42     -329446.08     -330.18117      0              16315.777      0              0              13.796834      8.5403011      6.661          784.85972    
        64   0              7.6033234     -109877.43     -329325.64     -306.64203      0              16413.661      0              0              13.796834      8.5394417      6.661          784.78074    
        65   0              7.6027814     -109829.32     -329204.85     -283.10656      0              16511.526      0              0              13.796834      8.5385822      6.661          784.70175    
        66   0              7.6023272     -109781.09     -329083.7      -259.57476      0              16609.358      0              0              13.796834      8.5377228      6.661          784.62277    
        67   0              7.6021331     -109756.94     -329023.01     -247.79502      0                  16119.997      0              0              13.796834      8.54202        6.661          785.01769    
        62   0              7.6046715     -109973.29     -329566.14     -353.72396      0              16217.886      0              0              13.796834      8.5411606      6.         784.56353    
        69   0              7.6020442     -109744.85     -328992.64     -241.90788      0              16682.659      0              0              13.796834      8.5370782      6.661          784.56353    
WARNING: Bond/angle/dihedral extent > half of periodic box length (../domain.cpp:1174)
Loop time of 0.00638296 on 1 procs for 69 steps with 40 atoms

85.9% CPU use with 1 MPI tasks x no OpenMP threads

Minimization stats:
  Stopping criterion = linesearch alpha is zero
  Energy initial, next-to-last, final = 
      7.66532950314424    7.6020442487266    7.6020442487266
  Force two-norm initial, final = 7.8475442 1.0159067
  Force max component initial, final = 6.9176269 0.15951359
  Final line search alpha, max atom move = 6.3975495e-09 1.0204961e-09
  Iterations, force evaluations = 69 89

MPI task timing breakdown:
Section |  min time  |  avg time  |  max time  |%varavg| %total
---------------------------------------------------------------
Pair    | 0.00077505 | 0.00077505 | 0.00077505 |   0.0 | 12.14
Bond    | 0.0015161  | 0.0015161  | 0.0015161  |   0.0 | 23.75
Neigh   | 0          | 0          | 0          |   0.0 |  0.00
Comm    | 0.00078352 | 0.00078352 | 0.00078352 |   0.0 | 12.28
Output  | 0.00070267 | 0.00070267 | 0.00070267 |   0.0 | 11.01
Modify  | 0          | 0          | 0          |   0.0 |  0.00
Other   |            | 0.002606   |            |       | 40.82

Nlocal:             40 ave          40 max          40 min
Histogram: 1 0 0 0 0 0 0 0 0 0
Nghost:           1640 ave        1640 max        1640 min
Histogram: 1 0 0 0 0 0 0 0 0 0
Neighs:           5380 ave        5380 max        5380 min
Histogram: 1 0 0 0 0 0 0 0 0 0

Total # of neighbors = 5380
Ave neighs/atom = 134.5
Ave special neighs/atom = 18
Neighbor list builds = 0
Dangerous builds = 0
{"pxx":-328992.64119434490567, "pyy":-241.90788379431194244, "pzz":0, "pyz":0, "pxz":0, "pxy":16682.658554179164639, "pe":7.6020442487266031151,"lx":13.796833531211625257, "ly":8.5370781992713791198, "lz":6.6609999999999995879, "xy":5.4086718445278574308, "xz":0, "yz":0 }
System init for write_data ...
Generated 0 of 1 mixed pair_coeff terms from geometric mixing rule
Total wall time: 0:00:00
---------
Pair    | 0.00077505 | 0.00077505 | 0.00077505 |   0.0 | 12.14
Bond    | 0.0015161  | 0.0015161  | 0.0015161  |   0.0 | 23.75
Neigh   | 0          | 0          | 0          |   0.0 |  0.00
Comm    | 0.00078352 | 0.00078352 | 0.00078352 |   0.0 | 12.28
Output  | 0.00070267 | 0.00070267 | 0.00070267 |   0.0 | 11.01
Modify  | 0          | 0          | 0          |   0.0 |  0.00
Other   |            | 0.002606   |            |       | 40.82

Nlocal:             40 ave          40 max          40 min
Histogram: 1 0 0 0 0 0 0 0 0 0
Nghost:           1640 ave        1640 max        1640 min
Histogram: 1 0 0 0 0 0 0 0 0 0
Neighs:           5380 ave        5380 max        5380 min
Histogram: 1 0 0 0 0 0 0 0 0 0

Total # of neighbors = 5380
Ave neighs/atom = 134.5
Ave special neighs/atom = 18
Neighbor list builds = 0
Dangerous builds = 0
print '{"pxx":$(pxx), "pyy":$(pyy), "pzz":$(pzz), "pyz":$(pyz), "pxz":$(pxz), "pxy":$(pxy), "pe":$(pe),"lx":$(lx), "ly":$(ly), "lz":$(lz), "xy":$(xy), "xz":$(xz), "yz":$(yz) }' file thermo.json
{"pxx":-328992.64119434490567, "pyy":-241.90788379431194244, "pzz":0, "pyz":0, "pxz":0, "pxy":16682.658554179164639, "pe":7.6020442487266031151,"lx":13.796833531211625257, "ly":8.5370781992713791198, "lz":6.6609999999999995879, "xy":5.4086718445278574308, "xz":0, "yz":0 }
write_data final_str.data nocoeff
System init for write_data ...
Generated 0 of 1 mixed pair_coeff terms from geometric mixing rule
Total wall time: 0:00:00
