(written by ASE)

40 atoms
2 atom types

60 bonds
1 bond types

120 angles
2 angle types

0.0      13.796833531211625  xlo xhi
0.0      8.5944461271702846  ylo yhi
0.0      6.6609999999999996  zlo zhi
     5.4450173352406166                       0                       0  xy xz yz

Masses

     1                  10.811 # _
     2      14.006999999999998 # _

Atoms # full

     1   1   1   0.0 -0.00099831420218713762    0.067223933447705289                       0
     2   1   2   0.0      1.3742093452475419     0.76481399173363318                       0
     3   1   1   0.0      2.7583683906653302    0.067223933579412143                       0
     4   1   2   0.0      4.1335760504032759     0.76481399177214615                       0
     5   1   1   0.0      5.5177350972787007     0.06722393423008452                       0
     6   1   2   0.0      6.8929427584360683     0.76481399210023449                       0
     7   1   1   0.0      8.2771018055966277    0.067223934430918911                       0
     8   1   2   0.0      9.6523094667646969     0.76481399203385048                       0
     9   1   1   0.0      11.036468512129277     0.06722393384576468                       0
    10   1   2   0.0      12.411676172072733     0.76481399180727139                       0
    11   1   1   0.0      1.3602560190801007      2.2158354655226655                       0
    12   1   2   0.0      2.7354636785290776      2.9134255236940456                       0
    13   1   1   0.0      4.1196227243661934      2.2158354655656751                       0
    14   1   2   0.0      5.4948303852898484      2.9134255233936477                       0
    15   1   1   0.0      6.8789894331236763      2.2158354660760287                       0
    16   1   2   0.0      8.2541970947797321      2.9134255237381059                       0
    17   1   1   0.0      9.6383561412093037      2.2158354657695289                       0
    18   1   2   0.0      11.013563800954362      2.9134255238260711                       0
    19   1   1   0.0      12.397722846074636      2.2158354655616557                       0
    20   1   2   0.0      13.772930505265037      2.9134255237683542                       0
    21   1   1   0.0       2.721510351944854      4.3644469974001199                       0
    22   1   2   0.0       4.096718011663036      5.0620370553794878                       0
    23   1   1   0.0      5.4808770580322683       4.364446997276179                       0
    24   1   2   0.0      6.8560847194083667       5.062037054840073                       0
    25   1   1   0.0       8.240243767471604      4.3644469976798206                       0
    26   1   2   0.0       9.615451428109747      5.0620370557233096                       0
    27   1   1   0.0      10.999610474283216      4.3644469976183711                       0
    28   1   2   0.0      12.374818133732633      5.0620370557989318                       0
    29   1   1   0.0      13.758977178834042      4.3644469974707203                       0
    30   1   2   0.0      15.134184838040014       5.062037055640924                       0
    31   1   1   0.0      4.0827646858497832      6.5130585291086067                       0
    32   1   2   0.0      5.4579723465554233      7.2106485867490635                       0
    33   1   1   0.0      6.8421313929142249      6.5130585287177443                       0
    34   1   2   0.0      8.2173390533542268      7.2106485869018409                       0
    35   1   1   0.0      9.6014981006434628      6.5130585295250025                       0
    36   1   2   0.0      10.976705760587034      7.2106485875877731                       0
    37   1   1   0.0      12.360864807016338      6.5130585296603094                       0
    38   1   2   0.0      13.736072466806547      7.2106485877674338                       0
    39   1   1   0.0      15.120231511958888      6.5130585294039598                       0
    40   1   2   0.0      16.495439171885277      7.2106485873400148                       0

Bonds

  1   1   1   2
  2   1   1  10
  3   1   1  32
  4   1   2   3
  5   1   2  11
  6   1   3   4
  7   1   3  34
  8   1   4   5
  9   1   4  13
 10   1   5   6
 11   1   5  36
 12   1   6   7
 13   1   6  15
 14   1   7   8
 15   1   7  38
 16   1   8   9
 17   1   8  17
 18   1   9  10
 19   1   9  40
 20   1  10  19
 21   1  11  12
 22   1  11  20
 23   1  12  13
 24   1  12  21
 25   1  13  14
 26   1  14  15
 27   1  14  23
 28   1  15  16
 29   1  16  17
 30   1  16  25
 31   1  17  18
 32   1  18  19
 33   1  18  27
 34   1  19  20
 35   1  20  29
 36   1  21  22
 37   1  21  30
 38   1  22  23
 39   1  22  31
 40   1  23  24
 41   1  24  25
 42   1  24  33
 43   1  25  26
 44   1  26  27
 45   1  26  35
 46   1  27  28
 47   1  28  29
 48   1  28  37
 49   1  29  30
 50   1  30  39
 51   1  31  32
 52   1  31  40
 53   1  32  33
 54   1  33  34
 55   1  34  35
 56   1  35  36
 57   1  36  37
 58   1  37  38
 59   1  38  39
 60   1  39  40

Angles

  1   2   2   1  10
  2   2   2   1  32
  3   2  10   1  32
  4   1   1   2   3
  5   1   1   2  11
  6   1   3   2  11
  7   2   2   3   4
  8   2   2   3  34
  9   2   4   3  34
 10   1   3   4   5
 11   1   3   4  13
 12   1   5   4  13
 13   2   4   5   6
 14   2   4   5  36
 15   2   6   5  36
 16   1   5   6   7
 17   1   5   6  15
 18   1   7   6  15
 19   2   6   7   8
 20   2   6   7  38
 21   2   8   7  38
 22   1   7   8   9
 23   1   7   8  17
 24   1   9   8  17
 25   2   8   9  10
 26   2   8   9  40
 27   2  10   9  40
 28   1   1  10   9
 29   1   1  10  19
 30   1   9  10  19
 31   2   2  11  12
 32   2   2  11  20
 33   2  12  11  20
 34   1  11  12  13
 35   1  11  12  21
 36   1  13  12  21
 37   2   4  13  12
 38   2   4  13  14
 39   2  12  13  14
 40   1  13  14  15
 41   1  13  14  23
 42   1  15  14  23
 43   2   6  15  14
 44   2   6  15  16
 45   2  14  15  16
 46   1  15  16  17
 47   1  15  16  25
 48   1  17  16  25
 49   2   8  17  16
 50   2   8  17  18
 51   2  16  17  18
 52   1  17  18  19
 53   1  17  18  27
 54   1  19  18  27
 55   2  10  19  18
 56   2  10  19  20
 57   2  18  19  20
 58   1  11  20  19
 59   1  11  20  29
 60   1  19  20  29
 61   2  12  21  22
 62   2  12  21  30
 63   2  22  21  30
 64   1  21  22  23
 65   1  21  22  31
 66   1  23  22  31
 67   2  14  23  22
 68   2  14  23  24
 69   2  22  23  24
 70   1  23  24  25
 71   1  23  24  33
 72   1  25  24  33
 73   2  16  25  24
 74   2  16  25  26
 75   2  24  25  26
 76   1  25  26  27
 77   1  25  26  35
 78   1  27  26  35
 79   2  18  27  26
 80   2  18  27  28
 81   2  26  27  28
 82   1  27  28  29
 83   1  27  28  37
 84   1  29  28  37
 85   2  20  29  28
 86   2  20  29  30
 87   2  28  29  30
 88   1  21  30  29
 89   1  21  30  39
 90   1  29  30  39
 91   2  22  31  32
 92   2  22  31  40
 93   2  32  31  40
 94   1   1  32  31
 95   1   1  32  33
 96   1  31  32  33
 97   2  24  33  32
 98   2  24  33  34
 99   2  32  33  34
100   1   3  34  33
101   1   3  34  35
102   1  33  34  35
103   2  26  35  34
104   2  26  35  36
105   2  34  35  36
106   1   5  36  35
107   1   5  36  37
108   1  35  36  37
109   2  28  37  36
110   2  28  37  38
111   2  36  37  38
112   1   7  38  37
113   1   7  38  39
114   1  37  38  39
115   2  30  39  38
116   2  30  39  40
117   2  38  39  40
118   1   9  40  31
119   1   9  40  39
120   1  31  40  39
