LAMMPS (10 Sep 2025)
# SimuGlue hBN Template
units           metal
atom_style      full

# Styles MUST be defined before read_data for molecular systems
pair_style      zero 10.0
bond_style      morse
angle_style     quartic
dihedral_style harmonic

# Simulation variables
variable etol equal 0.0
variable ftol equal 
The 'box' command has been removed and will be ignored

Reading data file ...
  triclinic box = (0 0 0) to (17.2425 8.5717287 6.661) with tilt (6.7868866 0 0)
WARNING: Triclinic box skew is large. LAMMPS will run inefficiently. (../domain.cpp:221)
  1 by 1 by 1 MPI processor grid
  reading atoms ...
  40 atoms
  scanning bonds ...
  3 = max bonds/atom
  scanning angles ...
  3 = max angles/atom
  triclinic box = (0 0 0) to (17.2425 8.5717287 6.661) with tilt (6.7868866 0 0)
WARNING: Triclinic box skew is large. LAMMPS will run inefficiently. (../domain.cpp:221)
  1 by 1 by 1 MPI processor grid
  reading bonds ...
  60 bonds
  reading angles ...
  120 angles
Finding 1-2 1-3 1-4 neighbors ...
  special bond factors lj:    0        0        0       
  special bond factors coul:  0        0        0       
     3 = max # of 1-2 neighbors
     6 = max # of 1-3 neighbors
    18 = max # of 1-4 neighbors
    18 = max # of special neighbors
  special bonds CPU = 0.000 seconds
  read_data CPU = 0.007 seconds
Generated 0 of 1 mixed pair_coeff terms from geometric mixing rule
Neighbor list info ...
  update: every = 1 steps, delay = 0 steps, check = yes
  max neighbors/atom: 2000, page size: 100000
  master list distance cutoff = 11
  ghost atom cutoff = 11
  1 neighbor lists, perpetual/occasional/extra = 1 0 0
  (1) pair zero, perpetual
      attributes: half, newton on
      pair build: half/nsq/newton/tri
      stencil: none
      bin: none
Setting up cg style minimization ...
  Unit style    : metal
  Current step  : 0
WARNING: Energy due to 3 extra global DOFs will be included in minimizer energies
 (../min.cpp:222)
WARNING: Inconsistent image flags
For more information see https://docs.lammps.org/err0027 (../domain.cpp:1052)
WARNING: Bond/angle/dihedral extent > half of periodic box length (../domain.cpp:1174)
Per MPI rank memory allocation (min/avg/max) = 9.388 | 9.388 | 9.388 Mbytes
   Step          Temp          PotEng         Press           Pxx            Pyy            Pzz            Pxy            Pxz            Pyz             Lx             Ly             Lz           Volume    
         0   0              73.501829     -203030.16     -613528.62      4438.1574      0             -2377.1105      0              0              17.2425        8.5717287      6.661          984.48267    
         1   0              73.501636     -203093.1      -613444.01      4164.709       0             -2428.5223      0              0              17.2425        8.5725859      6.661          984.58112    
         2   0              73.501458     -203155.34     -613359.04      3893.027       0             -2479.9996      0              0              17.2425        8.5734431      6.661          984.67957    
         3   0              73.501293     -203216.79     -613273.68      3623.3123      0             -2531.5493      0              0              17.2425        8.5743002      6.661          984.77802    
         4   0              73.501141     -203277.35     -613187.86      3355.8057      0             -2583.1794      0              0              17.2425        8.5751574      6.661          984.87647    
         5   0              73.501001     -203336.91     -613101.53      3090.8003      0             -2634.8996      0              0              17.2425        8.5760146      6.661          984.97492    
         6   0              73.500872     -203395.31     -613014.59      2828.6558      0             -2686.7216      0              0              17.2425        8.5768718      6.661          985.07336    
         7   0              73.500751     -203452.37     -612926.94      2569.82        0             -2738.6598      0              0              17.2425        8.5777289      6.661          985.17181    
         8   0              73.500637     -203507.87     -612838.46      2314.8589      0             -2790.7322      0              0              17.2425        8.5785861      6.661          985.27026    
         9   0              73.500528     -203561.49     -612748.96      2064.4986      0             -2842.9614      0              0              17.2425        8.5794433      6.661          985.36871    
        10   0              73.500419     -203612.85     -612658.23      1819.6883      0             -2895.3762      0              0              17.2425        8.5803004      6.661          985.46716    
        11   0              73.500308     -203661.43     -612565.98      1581.6934      0             -2948.014       0              0              17.2425        8.5811576      6.661          985.5656     
        12   0              73.500187     -203706.52     -612471.81      1352.2362      0             -3000.9242      0              0              17.2425        8.5820148      6.661          985.66405    
        13   0              73.50005      -203747.15     -612375.15      1133.7121      0             -3054.1723      0              0              17.2425        8.582872       6.661          985.7625     
        14   0              73.499885     -203781.9      -612275.23      929.51577      0             -3107.8457      0              0              17.2425        8.5837291      6.661          985.86095    
        15   0              73.499678     -203808.8      -612170.9       744.50153      0             -3162.0587      0              0              17.2425        8.5845863      6.661          985.9594     
        16   0              73.499409     -203825.04     -612060.61      585.47687      0             -3216.9486      0              0              17.2425        8.5854435      6.661          986.05785    
        17   0              73.499052     -203827.08     -611942.33      461.07705      0             -3272.6343      0              0              17.2425        8.5863007      6.661          986.15629    
        18   0              73.498589     -203811.83     -611814.33      378.8336       0             -3329.0748      0              0              17.2425        8.5871578      6.661          986.25474    
        19   0              73.498033     -203780.11     -611677.07      336.73556      0             -3385.8128      0              0              17.2425        8.588015       6.661          986.35319    
        20   0              73.497439     -203738.79     -611534.42      318.05911      0             -3441.9956      0              0              17.2425        8.5888722      6.661          986.45164    
        21   0              73.496855     -203694.73     -611390.25      306.07207      0             -3496.977       0              0              17.2425        8.5897294      6.661          986.55009    
        22   0              73.496298     -203650.3      -611245.89      295.00262      0             -3550.5263      0              0              17.2425        8.5905865      6.661          986.64854    
        23   0              73.49577      -203605.85     -611101.55      284.00105      0             -3602.5516      0              0              17.2425        8.5914437      6.661          986.74698    
        24   0              73.495271     -203561.42     -610957.25      272.99991      0             -3652.9726      0              0              17.2425        8.5923009      6.661          986.84543    
        25   0              73.494801     -203517        -610812.99      261.99658      0             -3701.7021      0              0              17.2425        8.593158       6.661          986.94388    
        26   0              73.494359     -203472.6      -610668.78      250.99098      0             -3748.644       0              0              17.2425        8.5940152      6.661          987.04233    
        27   0              73.493946     -203428.22     -610524.63      239.98304      0             -3793.6917      0              0              17.2425        8.5948724      6.661             986.55009    
        22   0              73.496298     -203650.3      -611245.89      295.00262      0             -3550.5263      0              0              17.2425        8.5905865      6.661          986.64854    
        23   0              73.49577      -203605.85     -611101.5    217.95982      0             -3877.6159      0              0              17.2425        8.5965867      6.661          987.33767    
        30   0              73.492873     -203295.21     -610092.56      206.94433      0             -3916.2103      0              0              17.2425        8.5974439      6.661          987.43612    
        31   0              73.49257      -203250.93     -609948.71      195.92612      0             -3952.3408      0              0              17.2425        8.5983011      6.661          987.53457    
        32   0              73.492294     -203206.68     -609804.95      184.90505      0             -3985.8149      0              0              17.2425        8.5991583      6.661          987.63302    
        33   0              73.492045     -203162.47     -609661.3       173.88096      0             -4016.4118      0              0              17.2425        8.6000154      6.661          987.73147    
        34   0              73.491821     -203118.31     -609517.78      162.85371      0             -4043.8761      0              0              17.2425        8.6008726      6.661          987.82991    
        35   0              73.491624     -203074.2      -609374.41      151.82308      0             -4067.9095      0              0              17.2425        8.6017298      6.661          987.92836    
        36   0              73.491451     -203030.14     -609231.21      140.78886      0             -4088.1603      0              0              17.2425        8.6025869      6.661          988.02681    
        37   0              73.491303     -202986.15     -609088.2       129.75078      0             -4104.2088      0              0              17.2425        8.6034441      6.661          988.12526    
        38   0              73.491286     -202980.66     -609070.36      128.37312      0             -4105.6289      0              0              17.2425        8.6035513      6.661          988.13757    
        39   0              73.491282     -202979.29     -609065.9       128.02858      0             -4105.9647      0              0              17.2425        8.6035781      6.661          988.14064    
        40   0              73.491281     -202978.95     -609064.78      127.94243      0             -4106.0474      0              0              17.2425        8.6035847      6.661          988.14141    
        41   0              73.491281     -202978.95     -609064.78      127.94243      0             -4106.0474      0              0              17.2425        8.6035847      6.661          988.14141    
WARNING: Bond/angle/dihedral extent > half of periodic box length (../domain.cpp:1174)
Loop time of 0.00678425 on 1 procs for 41 steps with 40 atoms

100.0% CPU use with 1 MPI tasks x no OpenMP threads

Minimization stats:
  Stopping criterion = linesearch alpha is zero
  Energy initial, next-to-last, final = 
      73.5018289315088   73.4912810632648   73.4912810632648
  Force two-norm initial, final = 2.9442833 0.51161406
  Force max component initial, final = 2.7270959 0.07861625
  Final line search alpha, max atom move = 3.881841e-08 3.0517578e-09
  Iterations, force evaluations = 41 71

MPI task timing breakdown:
Section |  min time  |  avg time  |  max time  |%varavg| %total
---------------------------------------------------------------
Pair    | 0.000834   | 0.000834   | 0.000834   |   0.0 | 12.29
Bond    | 0.0017652  | 0.0017652  | 0.0017652  |   0.0 | 26.02
Neigh   | 0          | 0          | 0          |   0.0 |  0.00
Comm    | 0.0008178  | 0.0008178  | 0.0008178  |   0.0 | 12.05
Output  | 0.00062284 | 0.00062284 | 0.00062284 |   0.0 |  9.18
Modify  | 0          | 0          | 0          |   0.0 |  0.00
Other   |            | 0.002744   |            |       | 40.45

Nlocal:             40 ave          40 max          40 min
Histogram: 1 0 0 0 0 0 0 0 0 0
Nghost:           1528 ave        1528 max        1528 min
Histogram: 1 0 0 0 0 0 0 0 0 0
Neighs:           4340 ave        4340 max        4340 min
Histogram: 1 0 0 0 0 0 0 0 0 0

Total # of neighbors = 4340
Ave neighs/atom = 108.5
Ave special neighs/atom = 18
Neighbor list builds = 0
Dangerous builds = 0
{"pxx":-609064.7837876243284, "pyy":127.94243257845096196, "pzz":0, "pyz":0, "pxz":0, "pxy":-4106.0474495283860961, "pe":73.49128106326477905,"lx":17.24249963981550593, "ly":8.6035847466868400346, "lz":6.6609999999999995879, "xy":6.8121094225958609414, "xz":0, "yz":0 }
System init for write_data ...
Generated 0 of 1 mixed pair_coeff terms from geometric mixing rule
Total wall time: 0:00:00
-----------
Pair    | 0.000834   | 0.000834   | 0.000834   |   0.0 | 12.29
Bond    | 0.0017652  | 0.0017652  | 0.0017652  |   0.0 | 26.02
Neigh   | 0          | 0          | 0          |   0.0 |  0.00
Comm    | 0.0008178  | 0.0008178  | 0.0008178  |   0.0 | 12.05
Output  | 0.00062284 | 0.00062284 | 0.00062284 |   0.0 |  9.18
Modify  | 0          | 0          | 0          |   0.0 |  0.00
Other   |            | 0.002744   |            |       | 40.45

Nlocal:             40 ave          40 max          40 min
Histogram: 1 0 0 0 0 0 0 0 0 0
Nghost:           1528 ave        1528 max        1528 min
Histogram: 1 0 0 0 0 0 0 0 0 0
Neighs:           4340 ave        4340 max        4340 min
Histogram: 1 0 0 0 0 0 0 0 0 0

Total # of neighbors = 4340
Ave neighs/atom = 108.5
Ave special neighs/atom = 18
Neighbor list builds = 0
Dangerous builds = 0
print '{"pxx":$(pxx), "pyy":$(pyy), "pzz":$(pzz), "pyz":$(pyz), "pxz":$(pxz), "pxy":$(pxy), "pe":$(pe),"lx":$(lx), "ly":$(ly), "lz":$(lz), "xy":$(xy), "xz":$(xz), "yz":$(yz) }' file thermo.json
{"pxx":-609064.7837876243284, "pyy":127.94243257845096196, "pzz":0, "pyz":0, "pxz":0, "pxy":-4106.0474495283860961, "pe":73.49128106326477905,"lx":17.24249963981550593, "ly":8.6035847466868400346, "lz":6.6609999999999995879, "xy":6.8121094225958609414, "xz":0, "yz":0 }
write_data final_str.data nocoeff
System init for write_data ...
Generated 0 of 1 mixed pair_coeff terms from geometric mixing rule
Total wall time: 0:00:00
