# cwd: o.res_3d/run.c1_eps0.01
# cmd: pw.x -in qe.in

Authorization required, but no authorization protocol specified
Authorization required, but no authorization protocol specified
Authorization required, but no authorization protocol specified

     Program PWSCF v.7.3.1 starts on  2Mar2026 at 11:51: 0 

     This program is part of the open-source Quantum ESPRESSO suite
     for quantum simulation of materials; please cite
         "P. Giannozzi et al., J. Phys.:Condens. Matter 21 395502 (2009);
         "P. Giannozzi et al., J. Phys.:Condens. Matter 29 465901 (2017);
         "P. Giannozzi et al., J. Chem. Phys. 152 154105 (2020);
          URL http://www.quantum-espresso.org", 
     in publications or presentations arising from this work. More details at
     http://www.quantum-espresso.org/quote

     Parallel version (MPI), running on     1 processors

     MPI processes distributed on     1 nodes
     2386 MiB available memory on the printing compute node when the environment starts

     Reading input from qe.in

     Current dimensions of program PWSCF are:
     Max number of different atomic species (ntypx) = 10
     Max number of k-points (npk) =  40000
     Max angular momentum in pseudopotentials (lmaxx) =  4
     Message from routine setup:
     no reason to have ecutrho>4*ecutwfc
     Message from routine setup:
     using ibrav=0 with symmetry is DISCOURAGED, use correct ibrav instead

     Subspace diagonalization in iterative solution of the eigenvalue problem:
     a serial algorithm will be used


     G-vector sticks info
     --------------------
     sticks:   dense  smooth     PW     G-vecs:    dense   smooth      PW
     Sum         741     681    163                65061    58509    7231

     Using Slab Decomposition



     bravais-lattice index     =            0
     lattice parameter (alat)  =       5.9892  a.u.
     unit-cell volume          =     739.9661 (a.u.)^3
     number of atoms/cell      =            3
     number of atomic types    =            2
     number of electrons       =        18.00
     number of Kohn-Sham states=            9
     kinetic-energy cutoff     =      70.0000  Ry
     charge density cutoff     =     300.0000  Ry
     scf convergence threshold =      1.0E-05
     mixing beta               =       0.7000
     number of iterations used =            8  plain     mixing
     Exchange-correlation= SLA-PZ-NOGX-NOGC
                           (   1   1   0   0   0   0   0)

     celldm(1)=   5.989241  celldm(2)=   0.000000  celldm(3)=   0.000000
     celldm(4)=   0.000000  celldm(5)=   0.000000  celldm(6)=   0.000000

     crystal axes: (cart. coord. in units of alat)
               a(1) = (   1.000000  -0.000001   0.000000 )  
               a(2) = (   0.499999   0.857446   0.000000 )  
               a(3) = (   0.000000   0.000000   4.016888 )  

     reciprocal axes: (cart. coord. in units 2 pi/alat)
               b(1) = (  1.000000 -0.583127  0.000000 )  
               b(2) = (  0.000001  1.166254 -0.000000 )  
               b(3) = ( -0.000000  0.000000  0.248949 )  


     PseudoPot. # 1 for S  read from file:
     ../../PSEUDO/S.pz-hgh.UPF
     MD5 check sum: 38f9f902ee430b58f9df3cf2bf519617
     Pseudo is Norm-conserving, Zval =  6.0
     Generated in analytical, separable form
     Using radial grid of 1151 points,  3 beta functions with: 
                l(1) =   0
                l(2) =   0
                l(3) =   1

     PseudoPot. # 2 for Mo read from file:
     ../../PSEUDO/Mo.pz-hgh.UPF
     MD5 check sum: ddacfae2313397baf1b67b06fa6affd0
     Pseudo is Norm-conserving, Zval =  6.0
     Generated in analytical, separable form
     Using radial grid of 1229 points,  6 beta functions with: 
                l(1) =   0
                l(2) =   0
                l(3) =   1
                l(4) =   1
                l(5) =   2
                l(6) =   2

     atomic species   valence    mass     pseudopotential
     S                 6.00    32.07000     S ( 1.00)
     Mo                6.00    95.94000     Mo( 1.00)

      2 Sym. Ops. (no inversion) found



   Cartesian axes

     site n.     atom                  positions (alat units)
         1        Mo     tau(   1) = (  -0.0003012   0.0015140   0.0000000  )
         2        S      tau(   2) = (   0.4996987   0.2873282   0.4929930  )
         3        S      tau(   3) = (   0.4996987   0.2873282  -0.4929930  )

     number of k points=     1
                       cart. coord. in units 2pi/alat
        k(    1) = (   0.0000000   0.0000000   0.0000000), wk =   2.0000000

     Dense  grid:    65061 G-vectors     FFT dimensions: (  36,  36, 135)

     Smooth grid:    58509 G-vectors     FFT dimensions: (  32,  32, 135)

     Estimated max dynamical RAM per process >      53.96 MB

     Initial potential from superposition of free atoms

     starting charge      15.9993, renormalised to      18.0000

     negative rho (up, down):  5.367E-07 0.000E+00
     Starting wfcs are   27 randomized atomic wfcs

     total cpu time spent up to now is        1.4 secs

     Self-consistent Calculation

     iteration #  1     ecut=    70.00 Ry     beta= 0.70
     Davidson diagonalization with overlap
     ethr =  1.00E-02,  avg # of iterations =  2.0

     total cpu time spent up to now is        1.7 secs

     total energy              =     -56.56167965 Ry
     estimated scf accuracy    <       0.40516921 Ry

     iteration #  2     ecut=    70.00 Ry     beta= 0.70
     Davidson diagonalization with overlap
     ethr =  2.25E-03,  avg # of iterations =  5.0

     total cpu time spent up to now is        2.0 secs

     total energy              =     -56.42243933 Ry
     estimated scf accuracy    <       1.65267424 Ry

     iteration #  3     ecut=    70.00 Ry     beta= 0.70
     Davidson diagonalization with overlap
     ethr =  2.25E-03,  avg # of iterations =  6.0

     total cpu time spent up to now is        2.2 secs

     total energy              =     -56.69193690 Ry
     estimated scf accuracy    <       0.12949131 Ry

     iteration #  4     ecut=    70.00 Ry     beta= 0.70
     Davidson diagonalization with overlap
     ethr =  7.19E-04,  avg # of iterations =  2.0

     total cpu time spent up to now is        2.5 secs

     total energy              =     -56.68878308 Ry
     estimated scf accuracy    <       0.05144779 Ry

     iteration #  5     ecut=    70.00 Ry     beta= 0.70
     Davidson diagonalization with overlap
     ethr =  2.86E-04,  avg # of iterations =  5.0

     total cpu time spent up to now is        2.7 secs

     total energy              =     -56.70442803 Ry
     estimated scf accuracy    <       0.00972537 Ry

     iteration #  6     ecut=    70.00 Ry     beta= 0.70
     Davidson diagonalization with overlap
     ethr =  5.40E-05,  avg # of iterations =  1.0

     total cpu time spent up to now is        2.9 secs

     total energy              =     -56.70242106 Ry
     estimated scf accuracy    <       0.00589081 Ry

     iteration #  7     ecut=    70.00 Ry     beta= 0.70
     Davidson diagonalization with overlap
     ethr =  3.27E-05,  avg # of iterations =  5.0

     total cpu time spent up to now is        3.2 secs

     total energy              =     -56.70471092 Ry
     estimated scf accuracy    <       0.00338065 Ry

     iteration #  8     ecut=    70.00 Ry     beta= 0.70
     Davidson diagonalization with overlap
     ethr =  1.88E-05,  avg # of iterations =  1.0

     total cpu time spent up to now is        3.4 secs

     total energy              =     -56.70381592 Ry
     estimated scf accuracy    <       0.00247933 Ry

     iteration #  9     ecut=    70.00 Ry     beta= 0.70
     Davidson diagonalization with overlap
     ethr =  1.38E-05,  avg # of iterations =  5.0

     total cpu time spent up to now is        3.7 secs

     total energy              =     -56.70458993 Ry
     estimated scf accuracy    <       0.00082889 Ry

     iteration # 10     ecut=    70.00 Ry     beta= 0.70
     Davidson diagonalization with overlap
     ethr =  4.60E-06,  avg # of iterations =  1.0

     total cpu time spent up to now is        3.9 secs

     total energy              =     -56.70449957 Ry
     estimated scf accuracy    <       0.00062674 Ry

     iteration # 11     ecut=    70.00 Ry     beta= 0.70
     Davidson diagonalization with overlap
     ethr =  3.48E-06,  avg # of iterations =  2.0

     total cpu time spent up to now is        4.1 secs

     total energy              =     -56.70453452 Ry
     estimated scf accuracy    <       0.00022443 Ry

     iteration # 12     ecut=    70.00 Ry     beta= 0.70
     Davidson diagonalization with overlap
     ethr =  1.25E-06,  avg # of iterations =  1.0

     total cpu time spent up to now is        4.3 secs

     total energy              =     -56.70452230 Ry
     estimated scf accuracy    <       0.00019942 Ry

     iteration # 13     ecut=    70.00 Ry     beta= 0.70
     Davidson diagonalization with overlap
     ethr =  1.11E-06,  avg # of iterations =  1.0

     total cpu time spent up to now is        4.5 secs

     total energy              =     -56.70451454 Ry
     estimated scf accuracy    <       0.00010926 Ry

     iteration # 14     ecut=    70.00 Ry     beta= 0.70
     Davidson diagonalization with overlap
     ethr =  6.07E-07,  avg # of iterations =  5.0

     total cpu time spent up to now is        4.7 secs

     End of self-consistent calculation

          k = 0.0000 0.0000 0.0000 (  7231 PWs)   bands (ev):

   -14.3060 -13.2602  -5.2598  -1.9262  -1.8159  -1.6888  -0.9681  -0.9093
     0.6493

     highest occupied level (ev):     0.6493

!    total energy              =     -56.70454201 Ry
     estimated scf accuracy    <       0.00000194 Ry

     The total energy is the sum of the following terms:
     one-electron contribution =    -189.41842629 Ry
     hartree contribution      =     100.44778100 Ry
     xc contribution           =     -13.23210930 Ry
     ewald contribution        =      45.49821258 Ry

     convergence has been achieved in  14 iterations

     Forces acting on atoms (cartesian axes, Ry/au):

     atom    1 type  2   force =     0.00023250    0.00247395    0.00000000
     atom    2 type  1   force =    -0.00011625   -0.00123698   -0.10784846
     atom    3 type  1   force =    -0.00011625   -0.00123698    0.10784846

     Total force =     0.152551     Total SCF correction =     0.000546


     Computing stress (Cartesian axis) and pressure

          total   stress  (Ry/bohr**3)                   (kbar)     P=       24.58
   0.00067617   0.00000023   0.00000000           99.47        0.03        0.00
   0.00000023   0.00070254   0.00000000            0.03      103.35        0.00
   0.00000000   0.00000000  -0.00087736            0.00        0.00     -129.06


     Writing all to output data dir /cyclonas_users/kgkoutis/SimuGlue/examples/cij_mos2_qe/OUTDIR/RES3d/run.c1_eps0.01/RES3d.save/ :
     XML data file, charge density, pseudopotentials, collected wavefunctions

     init_run     :      1.66s CPU      1.34s WALL (       1 calls)
     electrons    :     62.32s CPU      3.35s WALL (       1 calls)
     forces       :      0.51s CPU      0.08s WALL (       1 calls)
     stress       :      1.29s CPU      0.42s WALL (       1 calls)

     Called by init_run:
     wfcinit      :      0.61s CPU      0.26s WALL (       1 calls)
     potinit      :      0.32s CPU      0.33s WALL (       1 calls)
     hinit0       :      0.70s CPU      0.71s WALL (       1 calls)

     Called by electrons:
     c_bands      :     26.73s CPU      1.57s WALL (      14 calls)
     sum_band     :     15.35s CPU      0.71s WALL (      14 calls)
     v_of_rho     :      8.49s CPU      0.44s WALL (      15 calls)
     mix_rho      :      9.84s CPU      0.47s WALL (      14 calls)

     Called by c_bands:
     init_us_2    :      2.39s CPU      0.16s WALL (      29 calls)
     cegterg      :     26.09s CPU      1.43s WALL (      14 calls)

     Called by *egterg:
     cdiaghg      :      0.35s CPU      0.01s WALL (      56 calls)
     h_psi        :     22.34s CPU      1.50s WALL (      57 calls)
     g_psi        :      0.61s CPU      0.03s WALL (      42 calls)

     Called by h_psi:
     h_psi:calbec :      0.82s CPU      0.04s WALL (      57 calls)
     vloc_psi     :     20.63s CPU      1.41s WALL (      57 calls)
     add_vuspsi   :      0.62s CPU      0.03s WALL (      57 calls)

     General routines
     calbec       :      0.84s CPU      0.04s WALL (      62 calls)
     fft          :      6.35s CPU      0.63s WALL (      77 calls)
     ffts         :      1.74s CPU      0.33s WALL (      29 calls)
     fftw         :     20.40s CPU      1.35s WALL (     854 calls)
     interpolate  :      1.03s CPU      0.34s WALL (      15 calls)

     Parallel routines

     PWSCF        :   1m 5.84s CPU      5.35s WALL


   This run was terminated on:  11:51: 5   2Mar2026            

=------------------------------------------------------------------------------=
   JOB DONE.
=------------------------------------------------------------------------------=
Note: The following floating-point exceptions are signalling: IEEE_UNDERFLOW_FLAG
