LAMMPS (10 Sep 2025)
# SimuGlue hBN Template
units           metal
atom_style      full

# Styles MUST be defined before read_data for molecular systems
pair_style      zero 10.0
bond_style      morse
angle_style     quartic
dihedral_style harmonic

# Simulation variables
variable etol equal 0.0
variable ftol equal 
The 'box' command has been removed and will be ignored

Reading data file ...
  triclinic box = (0 0 0) to (17.895219 8.6035847 6.661) with tilt (7.0699838 0 0)
WARNING: Triclinic box skew is large. LAMMPS will run inefficiently. (../domain.cpp:221)
  1 by 1 by 1 MPI processor grid
  reading atoms ...
  40 atoms
  scanning bonds ...
  3 = max bonds/atom
  scanning angles ...
  3 = max angles/atom
  triclinic box = (0 0 0) to (17.895219 8.6035847 6.661) with tilt (7.0699838 0 0)
WARNING: Triclinic box skew is large. LAMMPS will run inefficiently. (../domain.cpp:221)
  1 by 1 by 1 MPI processor grid
  reading bonds ...
  60 bonds
  reading angles ...
  120 angles
Finding 1-2 1-3 1-4 neighbors ...
  special bond factors lj:    0        0        0       
  special bond factors coul:  0        0        0       
     3 = max # of 1-2 neighbors
     6 = max # of 1-3 neighbors
    18 = max # of 1-4 neighbors
    18 = max # of special neighbors
  special bonds CPU = 0.000 seconds
  read_data CPU = 0.007 seconds
Generated 0 of 1 mixed pair_coeff terms from geometric mixing rule
Neighbor list info ...
  update: every = 1 steps, delay = 0 steps, check = yes
  max neighbors/atom: 2000, page size: 100000
  master list distance cutoff = 11
  ghost atom cutoff = 11
  1 neighbor lists, perpetual/occasional/extra = 1 0 0
  (1) pair zero, perpetual
      attributes: half, newton on
      pair build: half/nsq/newton/tri
      stencil: none
      bin: none
Setting up cg style minimization ...
  Unit style    : metal
  Current step  : 0
WARNING: Energy due to 3 extra global DOFs will be included in minimizer energies
 (../min.cpp:222)
WARNING: Inconsistent image flags
For more information see https://docs.lammps.org/err0027 (../domain.cpp:1052)
WARNING: Bond/angle/dihedral extent > half of periodic box length (../domain.cpp:1174)
Per MPI rank memory allocation (min/avg/max) = 9.382 | 9.382 | 9.382 Mbytes
   Step          Temp          PotEng         Press           Pxx            Pyy            Pzz            Pxy            Pxz            Pyz             Lx             Ly             Lz           Volume    
         0   0              87.613782     -196745.87     -598978.46      8740.8676      0             -5169.3452      0              0              17.895219      8.6035847      6.661          1025.5478    
         1   0              87.613343     -196801.26     -598891.67      8487.8767      0             -5217.3968      0              0              17.895219      8.6044451      6.661          1025.6503    
         2   0              87.612915     -196856.24     -598804.67      8235.9445      0             -5265.425       0              0              17.895219      8.6053055      6.661          1025.7529    
         3   0              87.612498     -196910.78     -598717.46      7985.1184      0             -5313.4278      0              0              17.895219      8.6061658      6.661          1025.8554    
         4   0              87.612092     -196964.86     -598630.02      7735.4492      0             -5361.4029      0              0              17.895219      8.6070262      6.661          1025.958     
         5   0              87.611696     -197018.45     -598542.34      7486.9927      0             -5409.348       0              0              17.895219      8.6078865      6.661          1026.0606    
         6   0              87.611309     -197071.53     -598454.4       7239.8089      0             -5457.2604      0              0              17.895219      8.6087469      6.661          1026.1631    
         7   0              87.610931     -197124.08     -598366.19      6993.9634      0             -5505.1374      0              0              17.895219      8.6096073      6.661          1026.2657    
         8   0              87.610561     -197176.05     -598277.69      6749.5278      0             -5552.9757      0              0              17.895219      8.6104676      6.661          1026.3682    
         9   0              87.610198     -197227.43     -598188.88      6506.5802      0             -5600.7719      0              0              17.895219      8.611328       6.661          1026.4708    
        10   0              87.609842     -197278.18     -598099.73      6265.206       0             -5648.5223      0              0              17.895219      8.6121883      6.661          1026.5733    
        11   0              87.609491     -197328.24     -598010.23      6025.4993      0             -5696.2227      0              0              17.895219      8.6130487      6.661          1026.6759    
        12   0              87.609144     -197377.59     -597920.35      5787.5632      0             -5743.8683      0              0              17.895219      8.613909       6.661          1026.7784    
        13   0              87.608801     -197426.18     -597830.05      5551.5116      0             -5791.4542      0              0              17.895219      8.6147694      6.661          1026.881     
        14   0              87.60846      -197473.95     -597739.31      5317.4703      0             -5838.9744      0              0              17.895219      8.6156298      6.661          1026.9836    
        15   0              87.60812      -197520.84     -597648.08      5085.5785      0             -5886.4226      0              0              17.895219      8.6164901      6.661          1027.0861    
        16   0              87.60778      -197566.78     -597556.34      4855.9908      0             -5933.7916      0              0              17.895219      8.6173505      6.661          1027.1887    
        17   0              87.607437     -197611.72     -597464.04      4628.8794      0             -5981.0732      0              0              17.895219      8.6182108      6.661          1027.2912    
        18   0              87.60709      -197655.56     -597371.12      4404.4363      0             -6028.2582      0              0              17.895219      8.6190712      6.661          1027.3938    
        19   0              87.606737     -197698.22     -597277.53      4182.876       0             -6075.3364      0              0              17.895219      8.6199316      6.661          1027.4963    
        20   0              87.606376     -197739.59     -597183.22      3964.4391      0             -6122.2958      0              0              17.895219      8.6207919      6.661          1027.5989    
        21   0              87.606005     -197779.57     -597088.11      3749.3959      0             -6169.1231      0              0              17.895219      8.6216523      6.661          1027.7014    
        22   0              87.60562      -197818.03     -596992.13      3538.0502      0             -6215.8027      0              0              17.895219      8.6225126      6.661          1027.804     
        23   0              87.605219     -197854.81     -596895.18      3330.7444      0             -6262.317       0              0              17.895219      8.623373       6.661          1027.9065    
        24   0              87.604798     -197889.77     -596797.18      3127.8647      0             -6308.6455      0              0              17.895219      8.6242334      6.661          1028.0091    
        25   0              87.604353     -197922.72     -596698         2929.8468      0             -6354.7648      0              0              17.895219      8.6250937      6.661          1028.1117    
        26   0              87.603881     -197953.45     -596597.53      2737.1816      0             -6400.6476      0              0              17.895219      8.6259541      6.661          1028.2142    
        27   0              87.603375     -197981.73     -596495.63      2550.421       0             -6446.2623      0              0              17.895219      8.6268144      6.661661          1027.7014    
        22   0              87.60562      -197818.03     -596992.13      3538.0502      0             -6215.8027      0              0              17.895219      8.6225126      6.661          1027.804     
        23   0              87.605219     -197854.81     -596886      2197.1551      0             -6536.5355      0              0              17.895219      8.6285351      6.661          1028.5219    
        30   0              87.601608     -198049.18     -596179.63      2032.0925      0             -6581.1031      0              0              17.895219      8.6293955      6.661          1028.6244    
        31   0              87.600913     -198064.81     -596070.24      1875.8126      0             -6625.2192      0              0              17.895219      8.6302559      6.661          1028.727     
        32   0              87.600155     -198076.42     -595958.45      1729.1777      0             -6668.8208      0              0              17.895219      8.6311162      6.661          1028.8295    
        33   0              87.599327     -198083.66     -595844.05      1593.0641      0             -6711.8377      0              0              17.895219      8.6319766      6.661          1028.9321    
        34   0              87.59842      -198086.17     -595726.83      1468.3132      0             -6754.1935      0              0              17.895219      8.6328369      6.661          1029.0346    
        35   0              87.597432     -198083.64     -595606.58      1355.6594      0             -6795.808       0              0              17.895219      8.6336973      6.661          1029.1372    
        36   0              87.596357     -198075.84     -595483.17      1255.6382      0             -6836.6011      0              0              17.895219      8.6345577      6.661          1029.2398    
        37   0              87.595195     -198062.68     -595356.53      1168.4827      0             -6876.4978      0              0              17.895219      8.635418       6.661          1029.3423    
        38   0              87.593948     -198044.23     -595226.71      1094.0305      0             -6915.4347      0              0              17.895219      8.6362784      6.661          1029.4449    
        39   0              87.592624     -198020.72     -595093.83      1031.6698      0             -6953.3658      0              0              17.895219      8.6371387      6.661          1029.5474    
        40   0              87.59123      -197992.6      -594958.16      980.35378      0             -6990.2664      0              0              17.895219      8.6379991      6.661          1029.65      
        41   0              87.589781     -197960.45     -594820.05      938.69317      0             -7026.1334      0              0              17.895219      8.6388594      6.661          1029.7525    
        42   0              87.58829      -197924.92     -594679.87      905.10867      0             -7060.982       0              0              17.895219      8.6397198      6.661          1029.8551    
        43   0              87.586769     -197886.68     -594538.04      878.00079      0             -7094.8392      0              0              17.895219      8.6405802      6.661          1029.9576    
        44   0              87.585232     -197846.34     -594394.91      855.89244      0             -7127.7373      0              0              17.895219      8.6414405      6.661          1030.0602    
        45   0              87.583688     -197804.43     -594250.8       837.51787      0             -7159.708       0              0              17.895219      8.6423009      6.661          1030.1627    
        46   0              87.582146     -197761.37     -594105.97      821.85543      0             -7190.7782      0              0              17.895219      8.6431612      6.661          1030.2653    
        47   0              87.580612     -197717.5      -593960.61      808.11857      0             -7220.9685      0              0              17.895219      8.6440216      6.661          1030.3679    
        48   0              87.57909      -197673.05     -593814.86      795.72361      0             -7250.2929      0              0              17.895219      8.644882       6.661          1030.4704    
        49   0              87.577584     -197628.2      -593668.84      784.24953      0             -7278.7588      0              0              17.895219      8.6457423      6.661          1030.573     
        50   0              87.576095     -197583.07     -593522.62      773.3993       0             -7306.3684      0              0              17.895219      8.6466027      6.661          1030.6755    
        51   0              87.574626     -197537.76     -593376.25      762.96698      0             -7333.1195      0              0              17.895219      8.647463       6.661          1030.7781    
        52   0              87.573176     -197492.31     -593229.75      752.81175      0             -7359.0064      0              0              17.895219      8.6483234      6.661          1030.8806    
        53   0              87.571747     -197446.78     -593083.17      742.83849      0             -7384.0205      0              0              17.895219      8.6491837      6.661          1030.9832    
        54   0              87.570339     -197401.17     -592936.5       732.98355      0             -7408.1513      0              0              17.895219      8.6500441      6.661          1031.0857    
        55   0              87.568953     -197355.52     -592789.77      723.20476      0             -7431.3864      0              0              17.895219      8.6509045      6.661          1031.1883    
        56   0              87.567588     -197309.84     -592642.98      713.47441      0             -7453.7121      0              0              17.895219      8.6517648      6.661          1031.2909    
        57   0              87.566243     -197264.12     -592496.14      703.77445      0             -7475.1135      0              0              17.895219      8.6526252      6.661          1031.3934    
        58   0              87.564921     -197218.38     -592349.23      694.09318      0             -7495.5747      0              0              17.895219      8.6534855      6.661          1031.496     
        59   0              87.563619     -197172.62     -592202.28      684.42313      0             -7515.0791      0              0              17.895219      8.6543459      6.661          1031.5985    
        60   0              87.562338     -197126.84     -592055.28      674.75952      0             -7533.609       0              0              17.895219      8.6552063      6.661          1031.7011    
        61   0              87.561079     -197081.04     -591908.22      665.09935      0             -7551.1462      0              0              17.895219      8.6560666      6.661          1031.8036    
        62   0              87.55984      -197035.22     -591761.12      655.44074      0             -7567.6714      0              0              17.895219      8.656927       6.661          1031.9062    
        63   0              87.558622     -196989.39     -591613.96      645.78252      0             -7583.1648      0              0              17.895219      8.6577873      6.661          1032.0087    
        64   0              87.557424     -196943.54     -591466.75      636.12395      0             -7597.6057      0              0              17.895219      8.6586477      6.661          1032.1113    
        65   0              87.556247     -196897.68     -591319.49      626.46461      0             -7610.9725      0              0              17.895219      8.659508       6.661          1032.2138    
        66   0              87.55509      -196851.79     -591172.18      616.80421      0             -7623.2428      0              0              17.895219      8.6603684      6.661          1032.3164    
        67   0              87.553953     -196805.89     -591024.82      607.14259      0                -7551.1462      0              0              17.895219      8.6560666      6.661          1031.8036    
        62   0              87.55984      -197035.22     -591761.12      655.44074      0             -7567.6714      0              0              17.895219      8.656927       6.6         1032.5215    
        69   0              87.551738     -196714.04     -590729.93      587.81533      0             -7653.2369      0              0              17.895219      8.6629495      6.661          1032.6241    
        70   0              87.550661     -196668.09     -590582.41      578.14958      0             -7660.8785      0              0              17.895219      8.6638098      6.661          1032.7266    
        71   0              87.549602     -196622.12     -590434.84      568.48236      0             -7667.2969      0              0              17.895219      8.6646702      6.661          1032.8292    
        72   0              87.548563     -196576.13     -590287.21      558.81366      0             -7672.4636      0              0              17.895219      8.6655306      6.661          1032.9317    
        73   0              87.547543     -196530.13     -590139.53      549.14346      0             -7676.3487      0              0              17.895219      8.6663909      6.661          1033.0343    
        74   0              87.546542     -196484.11     -589991.79      539.47175      0             -7678.9209      0              0              17.895219      8.6672513      6.661          1033.1368    
        75   0              87.54556      -196438.07     -589844         529.7985       0             -7680.1477      0              0              17.895219      8.6681116      6.661          1033.2394    
        76   0              87.544596     -196392.01     -589696.15      520.1237       0             -7679.9947      0              0              17.895219      8.668972       6.661          1033.3419    
        77   0              87.543651     -196345.93     -589548.25      510.44733      0             -7678.4263      0              0              17.895219      8.6698323      6.661          1033.4445    
        78   0              87.542723     -196299.84     -589400.29      500.76939      0             -7675.4048      0              0              17.895219      8.6706927      6.661          1033.5471    
        79   0              87.541814     -196253.73     -589252.27      491.08985      0             -7670.891       0              0              17.895219      8.6715531      6.661          1033.6496    
        80   0              87.540922     -196207.6      -589104.19      481.4087       0             -7664.8435      0              0              17.895219      8.6724134      6.661          1033.7522    
        81   0              87.540048     -196161.44     -588956.06      471.72592      0             -7657.2189      0              0              17.895219      8.6732738      6.661          1033.8547    
        82   0              87.53919      -196115.28     -588807.87      462.04149      0             -7647.9714      0              0              17.895219      8.6741341      6.661          1033.9573    
        83   0              87.53835      -196069.09     -588659.62      452.35539      0             -7637.053       0              0              17.895219      8.6749945      6.661          1034.0598    
        84   0              87.537526     -196022.88     -588511.31      442.66761      0             -7624.4128      0              0              17.895219      8.6758549      6.661          1034.1624    
        85   0              87.536719     -195976.65     -588362.93      432.97813      0             -7609.9973      0              0              17.895219      8.6767152      6.661          1034.2649    
        86   0              87.535928     -195930.41     -588214.5       423.28692      0             -7593.7499      0              0              17.895219      8.6775756      6.661          1034.3675    
        87   0              87.535153     -195884.14     -588066.01      413.59397      0             -7575.6106      0              0              17.895219      8.6784359      6.661          1034.47      
        88   0              87.534394     -195837.85     -587917.45      403.89926      0             -7555.5161      0              0              17.895219      8.6792963      6.661          1034.5726    
        89   0              87.53365      -195791.54     -587768.83      394.20275      0             -7533.3989      0              0              17.895219      8.6801567      6.661          1034.6752    
        90   0              87.532921     -195745.21     -587620.15      384.50443      0             -7509.1875      0              0              17.895219      8.681017       6.661          1034.7777    
        91   0              87.532207     -195698.86     -587471.4       374.80428      0             -7482.8059      0              0              17.895219      8.6818774      6.661          1034.8803    
        92   0              87.531507     -195652.49     -587322.59      365.10227      0             -7454.1729      0              0              17.895219      8.6827377      6.661          1034.9828    
        93   0              87.530821     -195606.1      -587173.71      355.39836      0             -7423.2019      0              0              17.895219      8.6835981      6.661          1035.0854    
        94   0              87.530149     -195559.69     -587024.76      345.69255      0             -7389.8006      0              0              17.895219      8.6844584      6.661          1035.1879    
        95   0              87.52949      -195513.25     -586875.74      335.98479      0             -7353.8696      0              0              17.895219      8.6853188      6.661          1035.2905    
        96   0              87.528844     -195466.8      -586726.66      326.27506      0             -7315.3026      0              0              17.895219      8.6861792      6.661          1035.393     
        97   0              87.528211     -195420.31     -586577.51      316.56333      0             -7273.9852      0              0              17.895219      8.6870395      6.661          1035.4956    
        98   0              87.527589     -195373.81     -586428.28      306.84956      0             -7229.7942      0              0              17.895219      8.6878999      6.661          1035.5982    
        99   0              87.52698      -195327.28     -586278.99      297.13372      0             -7182.5964      0              0              17.895219      8.6887602      6.661          1035.7007    
       100   0              87.526381     -195280.73     -586129.62      287.41577      0             -7132.2476      0              0              17.895219      8.6896206      6.661          1035.8033    
       101   0              87.525793     -195234.16     -585980.18      277.69568      0             -7078.5912      0              0              17.895219      8.690481       6.661          1035.9058    
       102   0              87.525215     -195187.56     -585830.66      267.97342      0             -7021.457       0              0              17.895219      8.6913413      6.661          1036.0084    
       103   0              87.524647     -195140.94     -585681.06      258.24892      0             -6960.6588      0              0              17.895219      8.6922017      6.661          1036.1109    
       104   0              87.524088     -195094.29     -585531.39      248.52216      0             -6895.9931      0              0              17.895219      8.693062       6.661          1036.2135    
       105   0              87.523537     -195047.61     -585381.64      238.79309      0             -6827.2358      0              0              17.895219      8.6939224      6.661          1036.316     
       106   0              87.522994     -195000.91     -585231.8       229.06165      0             -6754.1402      0              0              17.895219      8.6947827      6.661          1036.4186    
          101   0              87.525793     -195234.16     -585980.18      277.69568      0             -7078.5912      0              0              17.895219      8.690481       6.661          1035.9058    
       102   0              87.525215     -195187.56     -585830.66      267.97342      0          -6593.8092      0              0              17.895219      8.6965035      6.661          1036.6237    
       109   0              87.521404     -194860.65     -584781.79      199.85263      0             -6505.93        0              0              17.895219      8.6973638      6.661          1036.7263    
       110   0              87.520885     -194813.83     -584631.61      190.11118      0             -6412.4135      0              0              17.895219      8.6982242      6.661          1036.8288    
       111   0              87.520369     -194766.99     -584481.34      180.36708      0             -6312.8286      0              0              17.895219      8.6990845      6.661          1036.9314    
       112   0              87.519856     -194720.12     -584330.97      170.62024      0             -6206.6858      0              0              17.895219      8.6999449      6.661          1037.0339    
       113   0              87.519344     -194673.21     -584180.51      160.87059      0             -6093.4245      0              0              17.895219      8.7008053      6.661          1037.1365    
       114   0              87.518833     -194626.27     -584029.94      151.11803      0             -5972.3987      0              0              17.895219      8.7016656      6.661          1037.239     
       115   0              87.518321     -194579.3      -583879.27      141.36249      0             -5842.8572      0              0              17.895219      8.702526       6.661          1037.3416    
       116   0              87.517807     -194532.3      -583728.49      131.60385      0             -5703.918       0              0              17.895219      8.7033863      6.661          1037.4441    
       117   0              87.517288     -194485.25     -583577.6       121.84199      0             -5554.5342      0              0              17.895219      8.7042467      6.661          1037.5467    
       118   0              87.516764     -194438.17     -583426.59      112.0768       0             -5393.4473      0              0              17.895219      8.705107       6.661          1037.6492    
       119   0              87.516232     -194391.05     -583275.46      102.30814      0             -5219.1227      0              0              17.895219      8.7059674      6.661          1037.7518    
       120   0              87.51569      -194343.88     -583124.19      92.53583       0             -5029.6562      0              0              17.895219      8.7068278      6.661          1037.8544    
       121   0              87.515136     -194296.67     -582972.78      82.759705      0             -4822.6373      0              0              17.895219      8.7076881      6.661          1037.9569    
       122   0              87.514565     -194249.41     -582821.21      72.979549      0             -4594.9382      0              0              17.895219      8.7085485      6.661          1038.0595    
       123   0              87.513974     -194202.09     -582669.47      63.195116      0             -4342.3756      0              0              17.895219      8.7094088      6.661          1038.162     
       124   0              87.51336      -194154.71     -582517.55      53.406114      0             -4059.1358      0              0              17.895219      8.7102692      6.661          1038.2646    
       125   0              87.512714     -194107.27     -582365.41      43.612187      0             -3736.7235      0              0              17.895219      8.7111296      6.661          1038.3671    
       126   0              87.512031     -194059.73     -582213.01      33.812896      0             -3361.8436      0              0              17.895219      8.7119899      6.661          1038.4697    
       127   0              87.511299     -194012.09     -582060.29      24.007701      0             -2911.511       0              0              17.895219      8.7128503      6.661          1038.5722    
       128   0              87.510501     -193964.31     -581907.11      14.195919      0             -2339.1407      0              0              17.895219      8.7137106      6.661          1038.6748    
       129   0              87.509615     -193916.25     -581753.12      4.3787235      0             -1517.2402      0              0              17.895219      8.714571       6.661          1038.7774    
       130   0              87.508785     -193869.53     -581603.62     -4.9717902      0              302.3622       0              0              17.895219      8.7153879      6.661          1038.8747    
       131   0              87.508785     -193869.53     -581603.62     -4.9717902      0              302.3622       0              0              17.895219      8.7153879      6.661          1038.8747    
WARNING: Bond/angle/dihedral extent > half of periodic box length (../domain.cpp:1174)
Loop time of 0.01286 on 1 procs for 131 steps with 40 atoms

100.0% CPU use with 1 MPI tasks x no OpenMP threads

Minimization stats:
  Stopping criterion = linesearch alpha is zero
  Energy initial, next-to-last, final = 
      87.6137820406005   87.5087854699897   87.5087854699897
  Force two-norm initial, final = 6.3467854 0.019430221
  Force max component initial, final = 5.5949999 0.0031824262
  Final line search alpha, max atom move = 3.0888734e-05 9.8301115e-08
  Iterations, force evaluations = 131 152

MPI task timing breakdown:
Section |  min time  |  avg time  |  max time  |%varavg| %total
---------------------------------------------------------------
Pair    | 0.0014413  | 0.0014413  | 0.0014413  |   0.0 | 11.21
Bond    | 0.0032617  | 0.0032617  | 0.0032617  |   0.0 | 25.36
Neigh   | 0          | 0          | 0          |   0.0 |  0.00
Comm    | 0.001443   | 0.001443   | 0.001443   |   0.0 | 11.22
Output  | 0.001721   | 0.001721   | 0.001721   |   0.0 | 13.38
Modify  | 0          | 0          | 0          |   0.0 |  0.00
Other   |            | 0.004993   |            |       | 38.83

Nlocal:             40 ave          40 max          40 min
Histogram: 1 0 0 0 0 0 0 0 0 0
Nghost:           1408 ave        1408 max        1408 min
Histogram: 1 0 0 0 0 0 0 0 0 0
Neighs:           4140 ave        4140 max        4140 min
Histogram: 1 0 0 0 0 0 0 0 0 0

Total # of neighbors = 4140
Ave neighs/atom = 103.5
Ave special neighs/atom = 18
Neighbor list builds = 0
Dangerous builds = 0
{"pxx":-581603.61520802474115, "pyy":-4.9717902030145548764, "pzz":0, "pyz":0, "pxz":0, "pxy":302.36219980516830219, "pe":87.508785469989675221,"lx":17.895219337840032381, "ly":8.715387893962265764, "lz":6.6609999999999995879, "xy":7.1618578305923898952, "xz":0, "yz":0 }
System init for write_data ...
Generated 0 of 1 mixed pair_coeff terms from geometric mixing rule
Total wall time: 0:00:00
---------
Pair    | 0.0014413  | 0.0014413  | 0.0014413  |   0.0 | 11.21
Bond    | 0.0032617  | 0.0032617  | 0.0032617  |   0.0 | 25.36
Neigh   | 0          | 0          | 0          |   0.0 |  0.00
Comm    | 0.001443   | 0.001443   | 0.001443   |   0.0 | 11.22
Output  | 0.001721   | 0.001721   | 0.001721   |   0.0 | 13.38
Modify  | 0          | 0          | 0          |   0.0 |  0.00
Other   |            | 0.004993   |            |       | 38.83

Nlocal:             40 ave          40 max          40 min
Histogram: 1 0 0 0 0 0 0 0 0 0
Nghost:           1408 ave        1408 max        1408 min
Histogram: 1 0 0 0 0 0 0 0 0 0
Neighs:           4140 ave        4140 max        4140 min
Histogram: 1 0 0 0 0 0 0 0 0 0

Total # of neighbors = 4140
Ave neighs/atom = 103.5
Ave special neighs/atom = 18
Neighbor list builds = 0
Dangerous builds = 0
print '{"pxx":$(pxx), "pyy":$(pyy), "pzz":$(pzz), "pyz":$(pyz), "pxz":$(pxz), "pxy":$(pxy), "pe":$(pe),"lx":$(lx), "ly":$(ly), "lz":$(lz), "xy":$(xy), "xz":$(xz), "yz":$(yz) }' file thermo.json
{"pxx":-581603.61520802474115, "pyy":-4.9717902030145548764, "pzz":0, "pyz":0, "pxz":0, "pxy":302.36219980516830219, "pe":87.508785469989675221,"lx":17.895219337840032381, "ly":8.715387893962265764, "lz":6.6609999999999995879, "xy":7.1618578305923898952, "xz":0, "yz":0 }
write_data final_str.data nocoeff
System init for write_data ...
Generated 0 of 1 mixed pair_coeff terms from geometric mixing rule
Total wall time: 0:00:00
