LAMMPS (10 Sep 2025)
# SimuGlue hBN Template
units           metal
atom_style      full

# Styles MUST be defined before read_data for molecular systems
pair_style      zero 10.0
bond_style      morse
angle_style     quartic
dihedral_style harmonic

# Simulation variables
variable etol equal 0.0
variable ftol equal
The 'box' command has been removed and will be ignored

Reading data file ...
  triclinic box = (0 0 0) to (13.04891 8.6685118 6.661) with tilt (5.1942245 0 0)
WARNING: Triclinic box skew is large. LAMMPS will run inefficiently. (../domain.cpp:221)
  1 by 1 by 1 MPI processor grid
  reading atoms ...
  40 atoms
  scanning bonds ...
  3 = max bonds/atom
  scanning angles ...
  3 = max angles/atom
  triclinic box = (0 0 0) to (13.04891 8.6685118 6.661) with tilt (5.1942245 0 0)
WARNING: Triclinic box skew is large. LAMMPS will run inefficiently. (../domain.cpp:221)
  1 by 1 by 1 MPI processor grid
  reading bonds ...
  60 bonds
  reading angles ...
  120 angles
Finding 1-2 1-3 1-4 neighbors ...
  special bond factors lj:    0        0        0       
  special bond factors coul:  0        0        0       
     3 = max # of 1-2 neighbors
     6 = max # of 1-3 neighbors
    18 = max # of 1-4 neighbors
    18 = max # of special neighbors
  special bonds CPU = 0.000 seconds
  read_data CPU = 0.009 seconds
Generated 0 of 1 mixed pair_coeff terms from geometric mixing rule
Neighbor list info ...
  update: every = 1 steps, delay = 0 steps, check = yes
  max neighbors/atom: 2000, page size: 100000
  master list distance cutoff = 11
  ghost atom cutoff = 11
  1 neighbor lists, perpetual/occasional/extra = 1 0 0
  (1) pair zero, perpetual
      attributes: half, newton on
      pair build: half/nsq/newton/tri
      stencil: none
      bin: none
Setting up cg style minimization ...
  Unit style    : metal
  Current step  : 0
WARNING: Energy due to 3 extra global DOFs will be included in minimizer energies
 (../min.cpp:222)
WARNING: Inconsistent image flags
For more information see https://docs.lammps.org/err0027 (../domain.cpp:1052)
Per MPI rank memory allocation (min/avg/max) = 9.393 | 9.393 | 9.393 Mbytes
   Step          Temp          PotEng         Press           Pxx            Pyy            Pzz            Pxy            Pxz            Pyz             Lx             Ly             Lz           Volume    
         0   0              1.263586      -53162.305     -147906.59     -11580.326      0              4165.6782      0              0              13.04891       8.6685118      6.661          753.45653    
         1   0              1.2630481     -53008.119     -147853.39     -11170.969      0              4262.0306      0              0              13.04891       8.6676449      6.661          753.38119    
         2   0              1.2625267     -52853.924     -147799.65     -10762.122      0              4358.3858      0              0              13.04891       8.6667781      6.661          753.30584    
         3   0              1.2620213     -52699.727     -147745.34     -10353.843      0              4454.7431      0              0              13.04891       8.6659112      6.661          753.23049    
         4   0              1.2615314     -52545.536     -147690.41     -9946.1942      0              4551.1015      0              0              13.04891       8.6650444      6.661          753.15515    
         5   0              1.2610566     -52391.36      -147634.83     -9539.2468      0              4647.4601      0              0              13.04891       8.6641775      6.661          753.0798     
         6   0              1.2605962     -52237.208     -147578.55     -9133.0797      0              4743.8178      0              0              13.04891       8.6633107      6.661          753.00446    
         7   0              1.2601496     -52083.093     -147521.5      -8727.7816      0              4840.1733      0              0              13.04891       8.6624438      6.661          752.92911    
         8   0              1.2597161     -51929.026     -147463.63     -8323.4526      0              4936.5252      0              0              13.04891       8.661577       6.661          752.85377    
         9   0              1.2592949     -51775.021     -147404.86     -7920.2063      0              5032.8719      0              0              13.04891       8.6607101      6.661          752.77842    
        10   0              1.2588851     -51621.095     -147345.11     -7518.1724      0              5129.2114      0              0              13.04891       8.6598433      6.661          752.70307    
        11   0              1.2584855     -51467.267     -147284.3      -7117.4992      0              5225.5416      0              0              13.04891       8.6589764      6.661          752.62773    
        12   0              1.258095      -51313.557     -147222.31     -6718.3583      0              5321.8599      0              0              13.04891       8.6581096      6.661          752.55238    
        13   0              1.2577122     -51159.99      -147159.02     -6320.9487      0              5418.1634      0              0              13.04891       8.6572427      6.661          752.47704    
        14   0              1.2573355     -51006.595     -147094.28     -5925.5037      0              5514.4484      0              0              13.04891       8.6563759      6.661          752.40169    
        15   0              1.2569629     -50853.407     -147027.92     -5532.2981      0              5610.7108      0              0              13.04891       8.655509       6.661          752.32635    
        16   0              1.2565922     -50700.465     -146959.74     -5141.6594      0              5706.9453      0              0              13.04891       8.6546422      6.661          752.251      
        17   0              1.2562208     -50547.82      -146889.48     -4753.9811      0              5803.1457      0              0              13.04891       8.6537753      6.661          752.17565    
        18   0              1.2558453     -50395.529     -146816.84     -4369.7414      0              5899.3044      0              0              13.04891       8.6529085      6.661          752.10031    
        19   0              1.2554619     -50243.665     -146741.47     -3989.5287      0              5995.4116      0              0              13.04891       8.6520416      6.661          752.02496    
        20   0              1.2550657     -50092.319     -146662.88     -3614.0761      0              6091.4551      0              0              13.04891       8.6511748      6.661          751.94962    
        21   0              1.2546506     -49941.606     -146580.51     -3244.3112      0              6187.4193      0              0              13.04891       8.6503079      6.661          751.87427    
        22   0              1.2542089     -49791.67      -146493.58     -2881.4268      0              6283.2834      0              0              13.04891       8.6494411      6.661          751.79893    
        23   0              1.2537307     -49642.705     -146401.13     -2526.9855      0              6379.0199      0              0              13.04891       8.6485742      6.661          751.72358    
        24   0              1.2532029     -49494.965     -146301.82     -2183.0743      0              6474.5911      0              0              13.04891       8.6477074      6.661          751.64824    
        25   0              1.2526081     -49348.797     -146193.85     -1852.5397      0              6569.9443      0              0              13.04891       8.6468405      6.661          751.57289    
        26   0              1.2519227     -49204.685     -146074.71     -1539.3431      0              6665.004       0              0              13.04891       8.6459737      6.661          751.49754    
        27   0              1.2511143     -49063.308     -145940.84     -1249.0836      0              6759.6594      0              0              13.04891       8.6451068      6.661          751.4222     
        28   0              1.2501393     -48925.621     -145787.193.58     -2881.4268      0              6283.2834      0              0              13.04891       8.6494411      6.661          751.79893    
        23   0              1.2537307     -49642.705     -146401.13     -2526.9855      0              6379.0199      0              0              1391       8.6433731      6.661          751.27151    
        30   0              1.2474716     -48666.656     -145391.97     -608.00118      0              7039.1921      0              0              13.04891       8.6425063      6.661          751.19616    
        31   0              1.2457201     -48547.636     -145137.83     -505.08107      0              7129.9654      0              0              13.04891       8.6416394      6.661          751.12082    
        32   0              1.2438006     -48434.368     -144851.7      -451.40601      0              7219.3844      0              0              13.04891       8.6407726      6.661          751.04547    
        33   0              1.2419001     -48323.44      -144551.29     -419.03202      0              7307.8511      0              0              13.04891       8.6399057      6.661          750.97012    
        34   0              1.2401229     -48212.716     -144247.86     -390.29122      0              7395.6501      0              0              13.04891       8.6390388      6.661          750.89478    
        35   0              1.2384877     -48101.78      -143943.65     -361.69097      0              7482.8013      0              0              13.04891       8.638172       6.661          750.81943    
        36   0              1.2369952     -47990.617     -143638.76     -333.09075      0              7569.2474      0              0              13.04891       8.6373051      6.661          750.74409    
        37   0              1.235645      -47879.231     -143333.19     -304.49793      0              7654.9179      0              0              13.04891       8.6364383      6.661          750.66874    
        38   0              1.2344372     -47767.622     -143026.96     -275.91122      0              7739.7303      0              0              13.04891       8.6355714      6.661          750.5934     
        39   0              1.2333716     -47655.796     -142720.06     -247.33082      0              7823.5862      0              0              13.04891       8.6347046      6.661          750.51805    
        40   0              1.2324481     -47543.754     -142412.51     -218.75647      0              7906.3654      0              0              13.04891       8.6338377      6.661          750.4427     
        41   0              1.2316667     -47431.502     -142104.32     -190.18813      0              7987.9187      0              0              13.04891       8.6329709      6.661          750.36736    
        42   0              1.2310271     -47319.044     -141795.51     -161.62564      0              8068.054       0              0              13.04891       8.632104       6.661          750.29201    
        43   0              1.2305295     -47206.387     -141486.09     -133.06899      0              8146.5156      0              0              13.04891       8.6312372      6.661          750.21667    
        44   0              1.2301737     -47093.54      -141176.1      -104.51801      0              8222.9436      0              0              13.04891       8.6303703      6.661          750.14132    
        45   0              1.2299598     -46980.517     -140865.58     -75.973017      0              8296.7912      0              0              13.04891       8.6295035      6.661          750.06598    
        46   0              1.2299598     -46980.517     -140865.58     -75.973017      0              8296.7912      0              0              13.04891       8.6295035      6.661          750.06598    
Loop time of 0.00840601 on 1 procs for 46 steps with 40 atoms

99.9% CPU use with 1 MPI tasks x no OpenMP threads

Minimization stats:
  Stopping criterion = linesearch alpha is zero
  Energy initial, next-to-last, final = 
      1.26358596521331   1.22995976282526   1.22995976282526
  Force two-norm initial, final = 6.0221423 0.36707889
  Force max component initial, final = 5.4458873 0.057072602
  Final line search alpha, max atom move = 8.5416712e-08 4.874954e-09
  Iterations, force evaluations = 46 61

MPI task timing breakdown:
Section |  min time  |  avg time  |  max time  |%varavg| %total
---------------------------------------------------------------
Pair    | 0.0010126  | 0.0010126  | 0.0010126  |   0.0 | 12.05
Bond    | 0.0019835  | 0.0019835  | 0.0019835  |   0.0 | 23.60
Neigh   | 0          | 0          | 0          |   0.0 |  0.00
Comm    | 0.0010658  | 0.0010658  | 0.0010658  |   0.0 | 12.68
Output  | 0.00087606 | 0.00087606 | 0.00087606 |   0.0 | 10.42
Modify  | 0          | 0          | 0          |   0.0 |  0.00
Other   |            | 0.003468   |            |       | 41.26

Nlocal:             40 ave          40 max          40 min
Histogram: 1 0 0 0 0 0 0 0 0 0
Nghost:           1640 ave        1640 max        1640 min
Histogram: 1 0 0 0 0 0 0 0 0 0
Neighs:           5540 ave        5540 max        5540 min
Histogram: 1 0 0 0 0 0 0 0 0 0

Total # of neighbors = 5540
Ave neighs/atom = 138.5
Ave special neighs/atom = 18
Neighbor list builds = 0
Dangerous builds = 0
{"pxx":-140865.57661535096122, "pyy":-75.973016674274887805, "pzz":0, "pyz":0, "pxz":0, "pxy":8296.7912359853053204, "pe":1.2299597628252567638,"lx":13.048909644202085545, "ly":8.6295034850784375635, "lz":6.6609999999999995879, "xy":5.1708504959873025086, "xz":0, "yz":0 }
System init for write_data ...
Generated 0 of 1 mixed pair_coeff terms from geometric mixing rule
Total wall time: 0:00:00
---------
Pair    | 0.0010126  | 0.0010126  | 0.0010126  |   0.0 | 12.05
Bond    | 0.0019835  | 0.0019835  | 0.0019835  |   0.0 | 23.60
Neigh   | 0          | 0          | 0          |   0.0 |  0.00
Comm    | 0.0010658  | 0.0010658  | 0.0010658  |   0.0 | 12.68
Output  | 0.00087606 | 0.00087606 | 0.00087606 |   0.0 | 10.42
Modify  | 0          | 0          | 0          |   0.0 |  0.00
Other   |            | 0.003468   |            |       | 41.26

Nlocal:             40 ave          40 max          40 min
Histogram: 1 0 0 0 0 0 0 0 0 0
Nghost:           1640 ave        1640 max        1640 min
Histogram: 1 0 0 0 0 0 0 0 0 0
Neighs:           5540 ave        5540 max        5540 min
Histogram: 1 0 0 0 0 0 0 0 0 0

Total # of neighbors = 5540
Ave neighs/atom = 138.5
Ave special neighs/atom = 18
Neighbor list builds = 0
Dangerous builds = 0
print '{"pxx":$(pxx), "pyy":$(pyy), "pzz":$(pzz), "pyz":$(pyz), "pxz":$(pxz), "pxy":$(pxy), "pe":$(pe),"lx":$(lx), "ly":$(ly), "lz":$(lz), "xy":$(xy), "xz":$(xz), "yz":$(yz) }' file thermo.json
{"pxx":-140865.57661535096122, "pyy":-75.973016674274887805, "pzz":0, "pyz":0, "pxz":0, "pxy":8296.7912359853053204, "pe":1.2299597628252567638,"lx":13.048909644202085545, "ly":8.6295034850784375635, "lz":6.6609999999999995879, "xy":5.1708504959873025086, "xz":0, "yz":0 }
write_data final_str.data nocoeff
System init for write_data ...
Generated 0 of 1 mixed pair_coeff terms from geometric mixing rule
Total wall time: 0:00:00
