 &control
    calculation = 'scf'
    restart_mode='from_scratch',
    prefix='myprefix',
    tstress = .true.
    tprnfor = .true.
    etot_conv_thr=0.1, 
    forc_conv_thr=0.2
    pseudo_dir = '/psuedo_path/',
    outdir='/outdir_path/'
 /
 &system
    ibrav=  0, celldm(1) =3.77945225090701, nat=  3, ntyp= 3,
    ecutwfc = 100.0, ecutrho=200.0
 /
 &electrons
    diagonalization='david'
    electron_maxstep = 100
    mixing_mode = 'plain'
    mixing_beta = 0.7
    conv_thr = 1d-10
 /
ATOMIC_SPECIES
 T1  1.0     T1.UPF
 T2  2.0     T2.UPF
 T3  3.0     T3.UPF
CELL_PARAMETERS {angstrom}
1.00000000 0.00000000 0.00000000
0.00000000 1.00000000 0.00000000
0.00000000 0.00000000 10.0000000
ATOMIC_POSITIONS {alat}
T1 0.055 0.06 0.065
T2 0.105 0.11 0.115
T3 0.155 0.16 0.165
K_POINTS automatic
24 24 1 0 0 0
