LAMMPS (10 Sep 2025)
# SimuGlue hBN Template
units           metal
atom_style      full

# Styles MUST be defined before read_data for molecular systems
pair_style      zero 10.0
bond_style      morse
angle_style     quartic
dihedral_style harmonic

# Simulation variables
variable etol equal 0.0
variable ftol equal 
The 'box' command has been removed and will be ignored

Reading data file ...
  triclinic box = (0 0 0) to (16.613588 8.5370782 6.661) with tilt (6.5129034 0 0)
WARNING: Triclinic box skew is large. LAMMPS will run inefficiently. (../domain.cpp:221)
  1 by 1 by 1 MPI processor grid
  reading atoms ...
  40 atoms
  scanning bonds ...
  3 = max bonds/atom
  scanning angles ...
  3 = max angles/atom
  triclinic box = (0 0 0) to (16.613588 8.5370782 6.661) with tilt (6.5129034 0 0)
WARNING: Triclinic box skew is large. LAMMPS will run inefficiently. (../domain.cpp:221)
  1 by 1 by 1 MPI processor grid
  reading bonds ...
  60 bonds
  reading angles ...
  120 angles
Finding 1-2 1-3 1-4 neighbors ...
  special bond factors lj:    0        0        0       
  special bond factors coul:  0        0        0       
     3 = max # of 1-2 neighbors
     6 = max # of 1-3 neighbors
    18 = max # of 1-4 neighbors
    18 = max # of special neighbors
  special bonds CPU = 0.000 seconds
  read_data CPU = 0.008 seconds
Generated 0 of 1 mixed pair_coeff terms from geometric mixing rule
Neighbor list info ...
  update: every = 1 steps, delay = 0 steps, check = yes
  max neighbors/atom: 2000, page size: 100000
  master list distance cutoff = 11
  ghost atom cutoff = 11
  1 neighbor lists, perpetual/occasional/extra = 1 0 0
  (1) pair zero, perpetual
      attributes: half, newton on
      pair build: half/nsq/newton/tri
      stencil: none
      bin: none
Setting up cg style minimization ...
  Unit style    : metal
  Current step  : 0
WARNING: Energy due to 3 extra global DOFs will be included in minimizer energies
 (../min.cpp:222)
WARNING: Inconsistent image flags
For more information see https://docs.lammps.org/err0027 (../domain.cpp:1052)
WARNING: Bond/angle/dihedral extent > half of periodic box length (../domain.cpp:1174)
Per MPI rank memory allocation (min/avg/max) = 9.388 | 9.388 | 9.388 Mbytes
   Step          Temp          PotEng         Press           Pxx            Pyy            Pzz            Pxy            Pxz            Pyz             Lx             Ly             Lz           Volume    
         0   0              59.791348     -205047.93     -617008.59      1864.8074      0              11539.685      0              0              16.613588      8.5370782      6.661          944.7396     
         1   0              59.79027      -205128.61     -616926.46      1540.6376      0              11444.746      0              0              16.613588      8.5379319      6.661          944.83407    
         2   0              59.789131     -205209.82     -616844.01      1214.5575      0              11340.986      0              0              16.613588      8.5387856      6.661          944.92855    
         3   0              59.787886     -205291.88     -616761.06      885.41919      0              11223.661      0              0              16.613588      8.5396393      6.661          945.02302    
         4   0              59.78644      -205375.48     -616677.2       550.77512      0              11082.636      0              0              16.613588      8.540493       6.661          945.11749    
         5   0              59.784522     -205462.54     -616591.23      203.61681      0              10888.793      0              0              16.613588      8.5413467      6.661          945.21197    
         6   0              59.780448     -205565.13     -616495.32     -200.06379      0              10458.527      0              0              16.613588      8.5422004      6.661          945.30644    
         7   0              59.777547     -205511.2      -616558.52      24.906972      0              10140.023      0              0              16.613588      8.5413467      6.661          945.21197    
         8   0              59.755629     -205753.94     -616323.58     -938.2342       0              7216.2045      0              0              16.613588      8.5422004      6.661          945.30644    
         9   0              59.755629     -205753.94     -616323.58     -938.2342       0              7216.2045      0              0              16.613588      8.5422004      6.661          945.30644    
WARNING: Bond/angle/dihedral extent > half of periodic box length (../domain.cpp:1174)
Loop time of 0.00240626 on 1 procs for 9 steps with 40 atoms

100.0% CPU use with 1 MPI tasks x no OpenMP threads

Minimization stats:
  Stopping criterion = linesearch alpha is zero
  Energy initial, next-to-last, final = 
      59.7913477080235   59.7556287308666   59.7556287308666
  Force two-norm initial, final = 2.5102647 1.4361366
  Force max component initial, final = 1.0996025 0.5532393
  Final line search alpha, max atom move = 5.5161624e-09 3.0517578e-09
  Iterations, force evaluations = 9 24

MPI task timing breakdown:
Section |  min time  |  avg time  |  max time  |%varavg| %total
---------------------------------------------------------------
Pair    | 0.00032573 | 0.00032573 | 0.00032573 |   0.0 | 13.54
Bond    | 0.00064126 | 0.00064126 | 0.00064126 |   0.0 | 26.65
Neigh   | 0          | 0          | 0          |   0.0 |  0.00
Comm    | 0.00030388 | 0.00030388 | 0.00030388 |   0.0 | 12.63
Output  | 0.00013999 | 0.00013999 | 0.00013999 |   0.0 |  5.82
Modify  | 0          | 0          | 0          |   0.0 |  0.00
Other   |            | 0.0009954  |            |       | 41.37

Nlocal:             40 ave          40 max          40 min
Histogram: 1 0 0 0 0 0 0 0 0 0
Nghost:           1528 ave        1528 max        1528 min
Histogram: 1 0 0 0 0 0 0 0 0 0
Neighs:           4660 ave        4660 max        4660 min
Histogram: 1 0 0 0 0 0 0 0 0 0

Total # of neighbors = 4660
Ave neighs/atom = 116.5
Ave special neighs/atom = 18
Neighbor list builds = 0
Dangerous builds = 0
{"pxx":-616323.57818788173608, "pyy":-938.23420229227224354, "pzz":0, "pyz":0, "pxz":0, "pxy":7216.2044539406651893, "pe":59.75562873086661142,"lx":16.613587585393776891, "ly":8.5422004461909448736, "lz":6.6609999999999995879, "xy":6.5168110981670155368, "xz":0, "yz":0 }
System init for write_data ...
Generated 0 of 1 mixed pair_coeff terms from geometric mixing rule
Total wall time: 0:00:00
---------
Pair    | 0.00032573 | 0.00032573 | 0.00032573 |   0.0 | 13.54
Bond    | 0.00064126 | 0.00064126 | 0.00064126 |   0.0 | 26.65
Neigh   | 0          | 0          | 0          |   0.0 |  0.00
Comm    | 0.00030388 | 0.00030388 | 0.00030388 |   0.0 | 12.63
Output  | 0.00013999 | 0.00013999 | 0.00013999 |   0.0 |  5.82
Modify  | 0          | 0          | 0          |   0.0 |  0.00
Other   |            | 0.0009954  |            |       | 41.37

Nlocal:             40 ave          40 max          40 min
Histogram: 1 0 0 0 0 0 0 0 0 0
Nghost:           1528 ave        1528 max        1528 min
Histogram: 1 0 0 0 0 0 0 0 0 0
Neighs:           4660 ave        4660 max        4660 min
Histogram: 1 0 0 0 0 0 0 0 0 0

Total # of neighbors = 4660
Ave neighs/atom = 116.5
Ave special neighs/atom = 18
Neighbor list builds = 0
Dangerous builds = 0
print '{"pxx":$(pxx), "pyy":$(pyy), "pzz":$(pzz), "pyz":$(pyz), "pxz":$(pxz), "pxy":$(pxy), "pe":$(pe),"lx":$(lx), "ly":$(ly), "lz":$(lz), "xy":$(xy), "xz":$(xz), "yz":$(yz) }' file thermo.json
{"pxx":-616323.57818788173608, "pyy":-938.23420229227224354, "pzz":0, "pyz":0, "pxz":0, "pxy":7216.2044539406651893, "pe":59.75562873086661142,"lx":16.613587585393776891, "ly":8.5422004461909448736, "lz":6.6609999999999995879, "xy":6.5168110981670155368, "xz":0, "yz":0 }
write_data final_str.data nocoeff
System init for write_data ...
Generated 0 of 1 mixed pair_coeff terms from geometric mixing rule
Total wall time: 0:00:00
