LAMMPS (10 Sep 2025)
# SimuGlue hBN Template
units           metal
atom_style      full

# Styles MUST be defined before read_data for molecular systems
pair_style      zero 10.0
bond_style      morse
angle_style     quartic
dihedral_style harmonic

# Simulation variables
variable etol equal 0.0
variable ftol equal
The 'box' command has been removed and will be ignored

Reading data file ...
  triclinic box = (0 0 0) to (14.587626 8.5370782 6.661) with tilt (5.7186805 0 0)
WARNING: Triclinic box skew is large. LAMMPS will run inefficiently. (../domain.cpp:221)
  1 by 1 by 1 MPI processor grid
  reading atoms ...
  40 atoms
  scanning bonds ...
  3 = max bonds/atom
  scanning angles ...
  3 = max angles/atom
  triclinic box = (0 0 0) to (14.587626 8.5370782 6.661) with tilt (5.7186805 0 0)
WARNING: Triclinic box skew is large. LAMMPS will run inefficiently. (../domain.cpp:221)
  1 by 1 by 1 MPI processor grid
  reading bonds ...
  60 bonds
  reading angles ...
  120 angles
Finding 1-2 1-3 1-4 neighbors ...
  special bond factors lj:    0        0        0       
  special bond factors coul:  0        0        0       
     3 = max # of 1-2 neighbors
     6 = max # of 1-3 neighbors
    18 = max # of 1-4 neighbors
    18 = max # of special neighbors
  special bonds CPU = 0.000 seconds
  read_data CPU = 0.009 seconds
Generated 0 of 1 mixed pair_coeff terms from geometric mixing rule
Neighbor list info ...
  update: every = 1 steps, delay = 0 steps, check = yes
  max neighbors/atom: 2000, page size: 100000
  master list distance cutoff = 11
  ghost atom cutoff = 11
  1 neighbor lists, perpetual/occasional/extra = 1 0 0
  (1) pair zero, perpetual
      attributes: half, newton on
      pair build: half/nsq/newton/tri
      stencil: none
      bin: none
Setting up cg style minimization ...
  Unit style    : metal
  Current step  : 0
WARNING: Energy due to 3 extra global DOFs will be included in minimizer energies
 (../min.cpp:222)
WARNING: Inconsistent image flags
For more information see https://docs.lammps.org/err0027 (../domain.cpp:1052)
WARNING: Bond/angle/dihedral extent > half of periodic box length (../domain.cpp:1174)
Per MPI rank memory allocation (min/avg/max) = 9.39 | 9.39 | 9.39 Mbytes
   Step          Temp          PotEng         Press           Pxx            Pyy            Pzz            Pxy            Pxz            Pyz             Lx             Ly             Lz           Volume    
         0   0              19.024911     -161397.48     -473941        -10251.435      0              14427.142      0              0              14.587626      8.5370782      6.661          829.53233    
         1   0              19.024911     -161397.48     -473941        -10251.435      0              14427.142      0              0              14.587626      8.5370782      6.661          829.53233    
WARNING: Bond/angle/dihedral extent > half of periodic box length (../domain.cpp:1174)
Loop time of 0.00203676 on 1 procs for 1 steps with 40 atoms

44.5% CPU use with 1 MPI tasks x no OpenMP threads

Minimization stats:
  Stopping criterion = linesearch alpha is zero
  Energy initial, next-to-last, final = 
      19.0249109212845   19.0249109212845   19.0249109212845
  Force two-norm initial, final = 6.3514218 6.3514218
  Force max component initial, final = 5.3077155 5.3077155
  Final line search alpha, max atom move = 2.8748317e-10 1.5258789e-09
  Iterations, force evaluations = 1 17

MPI task timing breakdown:
Section |  min time  |  avg time  |  max time  |%varavg| %total
---------------------------------------------------------------
Pair    | 0.00028505 | 0.00028505 | 0.00028505 |   0.0 | 14.00
Bond    | 0.00058053 | 0.00058053 | 0.00058053 |   0.0 | 28.50
Neigh   | 0          | 0          | 0          |   0.0 |  0.00
Comm    | 0.00028178 | 0.00028178 | 0.00028178 |   0.0 | 13.83
Output  | 0          | 0          | 0          |   0.0 |  0.00
Modify  | 0          | 0          | 0          |   0.0 |  0.00
Other   |            | 0.0008894  |            |       | 43.67

Nlocal:             40 ave          40 max          40 min
Histogram: 1 0 0 0 0 0 0 0 0 0
Nghost:           1584 ave        1584 max        1584 min
Histogram: 1 0 0 0 0 0 0 0 0 0
Neighs:           5100 ave        5100 max        5100 min
Histogram: 1 0 0 0 0 0 0 0 0 0

Total # of neighbors = 5100
Ave neighs/atom = 127.5
Ave special neighs/atom = 18
Neighbor list builds = 0
Dangerous builds = 0
{"pxx":-473940.99894621985732, "pyy":-10251.435336873579217, "pzz":0, "pyz":0, "pxz":0, "pxy":14427.142049528549251, "pe":19.024910921284540422,"lx":14.587626144882019474, "ly":8.5370781992713791198, "lz":6.6609999999999995879, "xy":5.7186804950449321439, "xz":0, "yz":0 }
System init for write_data ...
Generated 0 of 1 mixed pair_coeff terms from geometric mixing rule
Total wall time: 0:00:00
---------
Pair    | 0.00028505 | 0.00028505 | 0.00028505 |   0.0 | 14.00
Bond    | 0.00058053 | 0.00058053 | 0.00058053 |   0.0 | 28.50
Neigh   | 0          | 0          | 0          |   0.0 |  0.00
Comm    | 0.00028178 | 0.00028178 | 0.00028178 |   0.0 | 13.83
Output  | 0          | 0          | 0          |   0.0 |  0.00
Modify  | 0          | 0          | 0          |   0.0 |  0.00
Other   |            | 0.0008894  |            |       | 43.67

Nlocal:             40 ave          40 max          40 min
Histogram: 1 0 0 0 0 0 0 0 0 0
Nghost:           1584 ave        1584 max        1584 min
Histogram: 1 0 0 0 0 0 0 0 0 0
Neighs:           5100 ave        5100 max        5100 min
Histogram: 1 0 0 0 0 0 0 0 0 0

Total # of neighbors = 5100
Ave neighs/atom = 127.5
Ave special neighs/atom = 18
Neighbor list builds = 0
Dangerous builds = 0
print '{"pxx":$(pxx), "pyy":$(pyy), "pzz":$(pzz), "pyz":$(pyz), "pxz":$(pxz), "pxy":$(pxy), "pe":$(pe),"lx":$(lx), "ly":$(ly), "lz":$(lz), "xy":$(xy), "xz":$(xz), "yz":$(yz) }' file thermo.json
{"pxx":-473940.99894621985732, "pyy":-10251.435336873579217, "pzz":0, "pyz":0, "pxz":0, "pxy":14427.142049528549251, "pe":19.024910921284540422,"lx":14.587626144882019474, "ly":8.5370781992713791198, "lz":6.6609999999999995879, "xy":5.7186804950449321439, "xz":0, "yz":0 }
write_data final_str.data nocoeff
System init for write_data ...
Generated 0 of 1 mixed pair_coeff terms from geometric mixing rule
Total wall time: 0:00:00
