# cwd: o.res_3d/run.c2_eps-0.01
# cmd: pw.x -in qe.in

Authorization required, but no authorization protocol specified
Authorization required, but no authorization protocol specified
Authorization required, but no authorization protocol specified

     Program PWSCF v.7.3.1 starts on  2Mar2026 at 11:51:23 

     This program is part of the open-source Quantum ESPRESSO suite
     for quantum simulation of materials; please cite
         "P. Giannozzi et al., J. Phys.:Condens. Matter 21 395502 (2009);
         "P. Giannozzi et al., J. Phys.:Condens. Matter 29 465901 (2017);
         "P. Giannozzi et al., J. Chem. Phys. 152 154105 (2020);
          URL http://www.quantum-espresso.org", 
     in publications or presentations arising from this work. More details at
     http://www.quantum-espresso.org/quote

     Parallel version (MPI), running on     1 processors

     MPI processes distributed on     1 nodes
     2372 MiB available memory on the printing compute node when the environment starts

     Reading input from qe.in

     Current dimensions of program PWSCF are:
     Max number of different atomic species (ntypx) = 10
     Max number of k-points (npk) =  40000
     Max angular momentum in pseudopotentials (lmaxx) =  4
     Message from routine setup:
     no reason to have ecutrho>4*ecutwfc
     Message from routine setup:
     using ibrav=0 with symmetry is DISCOURAGED, use correct ibrav instead

     Subspace diagonalization in iterative solution of the eigenvalue problem:
     a serial algorithm will be used


     G-vector sticks info
     --------------------
     sticks:   dense  smooth     PW     G-vecs:    dense   smooth      PW
     Sum         725     673    163                63665    57433    7147

     Using Slab Decomposition



     bravais-lattice index     =            0
     lattice parameter (alat)  =       5.9299  a.u.
     unit-cell volume          =     725.3133 (a.u.)^3
     number of atoms/cell      =            3
     number of atomic types    =            2
     number of electrons       =        18.00
     number of Kohn-Sham states=            9
     kinetic-energy cutoff     =      70.0000  Ry
     charge density cutoff     =     300.0000  Ry
     scf convergence threshold =      1.0E-05
     mixing beta               =       0.7000
     number of iterations used =            8  plain     mixing
     Exchange-correlation= SLA-PZ-NOGX-NOGC
                           (   1   1   0   0   0   0   0)

     celldm(1)=   5.929942  celldm(2)=   0.000000  celldm(3)=   0.000000
     celldm(4)=   0.000000  celldm(5)=   0.000000  celldm(6)=   0.000000

     crystal axes: (cart. coord. in units of alat)
               a(1) = (   1.000000  -0.000001   0.000000 )  
               a(2) = (   0.499999   0.857360   0.000000 )  
               a(3) = (   0.000000   0.000000   4.057057 )  

     reciprocal axes: (cart. coord. in units 2 pi/alat)
               b(1) = (  1.000000 -0.583185  0.000000 )  
               b(2) = (  0.000001  1.166371 -0.000000 )  
               b(3) = ( -0.000000  0.000000  0.246484 )  


     PseudoPot. # 1 for S  read from file:
     ../../PSEUDO/S.pz-hgh.UPF
     MD5 check sum: 38f9f902ee430b58f9df3cf2bf519617
     Pseudo is Norm-conserving, Zval =  6.0
     Generated in analytical, separable form
     Using radial grid of 1151 points,  3 beta functions with: 
                l(1) =   0
                l(2) =   0
                l(3) =   1

     PseudoPot. # 2 for Mo read from file:
     ../../PSEUDO/Mo.pz-hgh.UPF
     MD5 check sum: ddacfae2313397baf1b67b06fa6affd0
     Pseudo is Norm-conserving, Zval =  6.0
     Generated in analytical, separable form
     Using radial grid of 1229 points,  6 beta functions with: 
                l(1) =   0
                l(2) =   0
                l(3) =   1
                l(4) =   1
                l(5) =   2
                l(6) =   2

     atomic species   valence    mass     pseudopotential
     S                 6.00    32.07000     S ( 1.00)
     Mo                6.00    95.94000     Mo( 1.00)

      2 Sym. Ops. (no inversion) found



   Cartesian axes

     site n.     atom                  positions (alat units)
         1        Mo     tau(   1) = (  -0.0003012   0.0015138   0.0000000  )
         2        S      tau(   2) = (   0.4996987   0.2872994   0.4979229  )
         3        S      tau(   3) = (   0.4996987   0.2872994  -0.4979229  )

     number of k points=     1
                       cart. coord. in units 2pi/alat
        k(    1) = (   0.0000000   0.0000000   0.0000000), wk =   2.0000000

     Dense  grid:    63665 G-vectors     FFT dimensions: (  36,  36, 135)

     Smooth grid:    57433 G-vectors     FFT dimensions: (  32,  32, 135)

     Estimated max dynamical RAM per process >      53.14 MB

     Initial potential from superposition of free atoms

     starting charge      15.9993, renormalised to      18.0000

     negative rho (up, down):  5.452E-07 0.000E+00
     Starting wfcs are   27 randomized atomic wfcs

     total cpu time spent up to now is        1.4 secs

     Self-consistent Calculation

     iteration #  1     ecut=    70.00 Ry     beta= 0.70
     Davidson diagonalization with overlap
     ethr =  1.00E-02,  avg # of iterations =  2.0

     total cpu time spent up to now is        1.7 secs

     total energy              =     -56.57270018 Ry
     estimated scf accuracy    <       0.38022601 Ry

     iteration #  2     ecut=    70.00 Ry     beta= 0.70
     Davidson diagonalization with overlap
     ethr =  2.11E-03,  avg # of iterations =  5.0

     total cpu time spent up to now is        2.0 secs

     total energy              =     -56.53326340 Ry
     estimated scf accuracy    <       0.73074063 Ry

     iteration #  3     ecut=    70.00 Ry     beta= 0.70
     Davidson diagonalization with overlap
     ethr =  2.11E-03,  avg # of iterations =  6.0

     total cpu time spent up to now is        2.3 secs

     total energy              =     -56.68382758 Ry
     estimated scf accuracy    <       0.06840617 Ry

     iteration #  4     ecut=    70.00 Ry     beta= 0.70
     Davidson diagonalization with overlap
     ethr =  3.80E-04,  avg # of iterations =  4.0

     total cpu time spent up to now is        2.5 secs

     total energy              =     -56.69015713 Ry
     estimated scf accuracy    <       0.01530297 Ry

     iteration #  5     ecut=    70.00 Ry     beta= 0.70
     Davidson diagonalization with overlap
     ethr =  8.50E-05,  avg # of iterations =  3.0

     total cpu time spent up to now is        2.7 secs

     total energy              =     -56.69157220 Ry
     estimated scf accuracy    <       0.00155089 Ry

     iteration #  6     ecut=    70.00 Ry     beta= 0.70
     Davidson diagonalization with overlap
     ethr =  8.62E-06,  avg # of iterations =  6.0

     total cpu time spent up to now is        3.0 secs

     total energy              =     -56.69476032 Ry
     estimated scf accuracy    <       0.02085713 Ry

     iteration #  7     ecut=    70.00 Ry     beta= 0.70
     Davidson diagonalization with overlap
     ethr =  8.62E-06,  avg # of iterations =  1.0

     total cpu time spent up to now is        3.2 secs

     total energy              =     -56.69086863 Ry
     estimated scf accuracy    <       0.01760996 Ry

     iteration #  8     ecut=    70.00 Ry     beta= 0.70
     Davidson diagonalization with overlap
     ethr =  8.62E-06,  avg # of iterations =  6.0

     total cpu time spent up to now is        3.4 secs

     total energy              =     -56.69329783 Ry
     estimated scf accuracy    <       0.00009082 Ry

     iteration #  9     ecut=    70.00 Ry     beta= 0.70
     Davidson diagonalization with overlap
     ethr =  5.05E-07,  avg # of iterations = 10.0

     total cpu time spent up to now is        3.7 secs

     total energy              =     -56.69308190 Ry
     estimated scf accuracy    <       0.00330672 Ry

     iteration # 10     ecut=    70.00 Ry     beta= 0.70
     Davidson diagonalization with overlap
     ethr =  5.05E-07,  avg # of iterations =  6.0

     total cpu time spent up to now is        4.0 secs

     total energy              =     -56.69316609 Ry
     estimated scf accuracy    <       0.00036835 Ry

     iteration # 11     ecut=    70.00 Ry     beta= 0.70
     Davidson diagonalization with overlap
     ethr =  5.05E-07,  avg # of iterations =  5.0

     total cpu time spent up to now is        4.3 secs

     End of self-consistent calculation

          k = 0.0000 0.0000 0.0000 (  7147 PWs)   bands (ev):

   -14.3227 -13.2706  -5.2272  -1.7642  -1.6568  -1.6494  -0.8018  -0.7403
     0.6881

     highest occupied level (ev):     0.6881

!    total energy              =     -56.69321738 Ry
     estimated scf accuracy    <       0.00000355 Ry

     The total energy is the sum of the following terms:
     one-electron contribution =    -193.02554667 Ry
     hartree contribution      =     102.33246919 Ry
     xc contribution           =     -13.27048307 Ry
     ewald contribution        =      47.27034317 Ry

     convergence has been achieved in  11 iterations

     Forces acting on atoms (cartesian axes, Ry/au):

     atom    1 type  2   force =    -0.00006901    0.00334625    0.00000000
     atom    2 type  1   force =     0.00003450   -0.00167312   -0.10679016
     atom    3 type  1   force =     0.00003450   -0.00167312    0.10679016

     Total force =     0.151080     Total SCF correction =     0.001214


     Computing stress (Cartesian axis) and pressure

          total   stress  (Ry/bohr**3)                   (kbar)     P=       38.76
   0.00082740   0.00000022   0.00000000          121.71        0.03        0.00
   0.00000022   0.00085731   0.00000000            0.03      126.12        0.00
   0.00000000   0.00000000  -0.00089436            0.00        0.00     -131.56


     Writing all to output data dir /cyclonas_users/kgkoutis/SimuGlue/examples/cij_mos2_qe/OUTDIR/RES3d/run.c2_eps-0.01/RES3d.save/ :
     XML data file, charge density, pseudopotentials, collected wavefunctions

     init_run     :      1.71s CPU      1.34s WALL (       1 calls)
     electrons    :     49.60s CPU      2.91s WALL (       1 calls)
     forces       :      0.25s CPU      0.04s WALL (       1 calls)
     stress       :      1.13s CPU      0.38s WALL (       1 calls)

     Called by init_run:
     wfcinit      :      0.65s CPU      0.26s WALL (       1 calls)
     potinit      :      0.32s CPU      0.33s WALL (       1 calls)
     hinit0       :      0.71s CPU      0.71s WALL (       1 calls)

     Called by electrons:
     c_bands      :     26.02s CPU      1.58s WALL (      11 calls)
     sum_band     :     10.76s CPU      0.56s WALL (      11 calls)
     v_of_rho     :      5.32s CPU      0.31s WALL (      12 calls)
     mix_rho      :      5.54s CPU      0.32s WALL (      11 calls)

     Called by c_bands:
     init_us_2    :      1.66s CPU      0.12s WALL (      23 calls)
     cegterg      :     25.27s CPU      1.46s WALL (      11 calls)

     Called by *egterg:
     cdiaghg      :      0.32s CPU      0.02s WALL (      65 calls)
     h_psi        :     21.95s CPU      1.52s WALL (      66 calls)
     g_psi        :      0.54s CPU      0.03s WALL (      54 calls)

     Called by h_psi:
     h_psi:calbec :      0.99s CPU      0.05s WALL (      66 calls)
     vloc_psi     :     19.71s CPU      1.41s WALL (      66 calls)
     add_vuspsi   :      0.98s CPU      0.05s WALL (      66 calls)

     General routines
     calbec       :      1.00s CPU      0.06s WALL (      71 calls)
     fft          :      4.37s CPU      0.54s WALL (      62 calls)
     ffts         :      1.38s CPU      0.31s WALL (      23 calls)
     fftw         :     18.36s CPU      1.30s WALL (     845 calls)
     interpolate  :      1.27s CPU      0.32s WALL (      12 calls)

     Parallel routines

     PWSCF        :     52.74s CPU      4.83s WALL


   This run was terminated on:  11:51:27   2Mar2026            

=------------------------------------------------------------------------------=
   JOB DONE.
=------------------------------------------------------------------------------=
Note: The following floating-point exceptions are signalling: IEEE_UNDERFLOW_FLAG
