 &control
    calculation = 'scf'
    restart_mode='from_scratch',
    wf_collect=.true.
    prefix='MoSSe_0.000',
    tstress = .true.
    tprnfor = .true.
    etot_conv_thr=1d-6, 
    forc_conv_thr=1.d-5
    pseudo_dir = '/cyclonas_users/asgouros/projects/PhononQE/qe_psextra//',
    outdir='/scratch/asgouros//MoSSe_biaxial_phonon_0.000/'
 /
 &system
    ibrav=  0, celldm(1) =6.0336772, nat=  3, ntyp= 3,
    ecutwfc =80.0, ecutrho=400.0
    occupations='fixed'
 /
 &electrons
    diagonalization='david'
    electron_maxstep = 100
    mixing_mode = 'plain'
    mixing_beta = 0.7
    conv_thr = 1d-10
 /
ATOMIC_SPECIES
 S  32.065   S.pz-hgh.UPF
 Mo  95.94   Mo.pz-hgh.UPF
 Se  78.96   Se.pz-hgh.UPF
CELL_PARAMETERS {angstrom}
3.19893620	0.00000000	0.00000000
1.59946809	2.77035994	0.00000000
0.00000000	0.00000000	12.73099941
ATOMIC_POSITIONS {alat}
Mo	-0.00030171	0.00153148	0.01705970
S	0.50064638	0.29075401	0.49619410
Se	0.50064638	0.29075401	-0.51325381
K_POINTS automatic
24 24 1 0 0 0
