LAMMPS data file via write_data, version 10 Sep 2025, timestep = 71, units = metal

40 atoms
2 atom types
60 bonds
1 bond types
120 angles
2 angle types

0 18.23078737450002 xlo xhi
-0.030215444967067167 8.745603338929364 ylo yhi
0 6.661 zlo zhi
7.346745937748969 0 0 xy xz yz

Masses

1 10.811
2 14.007

Atoms # full

2 1 2 0 1.8337527021231013 0.7048668874974116 0 0 0 0
4 1 2 0 5.479910174209508 0.7048668871842744 0 0 0 0
11 1 1 0 1.8316140701546297 2.15666018051252 0 0 0 0
12 1 2 0 3.670439185549359 2.898821583057566 0 0 0 0
13 1 1 0 5.477771542574832 2.156660180193776 0 0 0 0
21 1 1 0 3.6683005536686695 4.350614876205828 0 0 0 0
22 1 2 0 5.507125667245156 5.092776279309787 0 0 0 0
31 1 1 0 5.504987035013643 6.544569572399962 0 0 0 0
1 1 1 0 7.341673523443086 8.738524268932707 0 0 -1 0
3 1 1 0 10.987830997006668 8.73852426887613 0 0 -1 0
6 1 2 0 9.126067653652544 0.7048668864092128 0 0 0 0
8 1 2 0 12.772225133058836 0.704866886716775 0 0 0 0
14 1 2 0 7.316596660757744 2.898821583344832 0 0 0 0
15 1 1 0 9.12392902171452 2.1566601793463804 0 0 0 0
16 1 2 0 10.962754141667922 2.8988215830381727 0 0 0 0
17 1 1 0 12.770086500750818 2.156660179833289 0 0 0 0
23 1 1 0 7.314458028990098 4.35061487630305 0 0 0 0
24 1 2 0 9.153283144558694 5.092776280060651 0 0 0 0
25 1 1 0 10.960615510046827 4.350614875919833 0 0 0 0
32 1 2 0 7.343812155803825 7.286730975918615 0 0 0 0
33 1 1 0 9.151144512932122 6.544569573080685 0 0 0 0
34 1 2 0 10.989969628424504 7.286730975955251 0 0 0 0
5 1 1 0 14.633988472618835 8.73852426720094 0 0 -1 0
7 1 1 0 18.280145949264544 8.73852426683257 0 0 -1 0
10 1 2 0 16.41838260584039 0.7048668872596436 0 0 0 0
18 1 2 0 14.608911615920565 2.8988215826729107 0 0 0 0
19 1 1 0 16.416243973583317 2.156660180333582 0 0 0 0
20 1 2 0 18.255069087628247 2.8988215828243735 0 0 0 0
26 1 2 0 12.799440624356453 5.092776278838395 0 0 0 0
27 1 1 0 14.606772984201394 4.35061487570568 0 0 0 0
28 1 2 0 16.44559809887852 5.0927762780780395 0 0 0 0
29 1 1 0 18.252930455721007 4.350614875956201 0 0 0 0
35 1 1 0 12.797301993295022 6.5445695719108565 0 0 0 0
36 1 2 0 14.636127103916024 7.286730974247133 0 0 0 0
37 1 1 0 16.443459467256666 6.544569571026233 0 0 0 0
38 1 2 0 18.282284581503085 7.286730973766713 0 0 0 0
9 1 1 0 21.926303424010563 8.73852426798625 0 0 -1 0
30 1 2 0 20.091755569700982 5.092776278518998 0 0 0 0
39 1 1 0 20.089616937501138 6.544569571540933 0 0 0 0
40 1 2 0 21.928442056647935 7.286730974788591 0 0 0 0

Velocities

2 0 0 0
4 0 0 0
11 0 0 0
12 0 0 0
13 0 0 0
21 0 0 0
22 0 0 0
31 0 0 0
1 0 0 0
3 0 0 0
6 0 0 0
8 0 0 0
14 0 0 0
15 0 0 0
16 0 0 0
17 0 0 0
23 0 0 0
24 0 0 0
25 0 0 0
32 0 0 0
33 0 0 0
34 0 0 0
5 0 0 0
7 0 0 0
10 0 0 0
18 0 0 0
19 0 0 0
20 0 0 0
26 0 0 0
27 0 0 0
28 0 0 0
29 0 0 0
35 0 0 0
36 0 0 0
37 0 0 0
38 0 0 0
9 0 0 0
30 0 0 0
39 0 0 0
40 0 0 0

Bonds

1 1 2 3
2 1 2 11
3 1 4 5
4 1 4 13
5 1 11 12
6 1 11 20
7 1 12 13
8 1 12 21
9 1 13 14
10 1 21 22
11 1 21 30
12 1 22 23
13 1 22 31
14 1 31 32
15 1 31 40
16 1 1 2
17 1 1 10
18 1 1 32
19 1 3 4
20 1 3 34
21 1 6 7
22 1 6 15
23 1 8 9
24 1 8 17
25 1 14 15
26 1 14 23
27 1 15 16
28 1 16 17
29 1 16 25
30 1 17 18
31 1 23 24
32 1 24 25
33 1 24 33
34 1 25 26
35 1 32 33
36 1 33 34
37 1 34 35
38 1 5 6
39 1 5 36
40 1 7 8
41 1 7 38
42 1 10 19
43 1 18 19
44 1 18 27
45 1 19 20
46 1 20 29
47 1 26 27
48 1 26 35
49 1 27 28
50 1 28 29
51 1 28 37
52 1 29 30
53 1 35 36
54 1 36 37
55 1 37 38
56 1 38 39
57 1 9 10
58 1 9 40
59 1 30 39
60 1 39 40

Angles

1 1 1 2 3
2 1 1 2 11
3 1 3 2 11
4 1 3 4 5
5 1 3 4 13
6 1 5 4 13
7 2 2 11 12
8 2 2 11 20
9 2 12 11 20
10 1 11 12 13
11 1 11 12 21
12 1 13 12 21
13 2 4 13 12
14 2 4 13 14
15 2 12 13 14
16 2 12 21 22
17 2 12 21 30
18 2 22 21 30
19 1 21 22 23
20 1 21 22 31
21 1 23 22 31
22 2 22 31 32
23 2 22 31 40
24 2 32 31 40
25 2 2 1 10
26 2 2 1 32
27 2 10 1 32
28 2 2 3 4
29 2 2 3 34
30 2 4 3 34
31 1 5 6 7
32 1 5 6 15
33 1 7 6 15
34 1 7 8 9
35 1 7 8 17
36 1 9 8 17
37 1 13 14 15
38 1 13 14 23
39 1 15 14 23
40 2 6 15 14
41 2 6 15 16
42 2 14 15 16
43 1 15 16 17
44 1 15 16 25
45 1 17 16 25
46 2 8 17 16
47 2 8 17 18
48 2 16 17 18
49 2 14 23 22
50 2 14 23 24
51 2 22 23 24
52 1 23 24 25
53 1 23 24 33
54 1 25 24 33
55 2 16 25 24
56 2 16 25 26
57 2 24 25 26
58 1 1 32 31
59 1 1 32 33
60 1 31 32 33
61 2 24 33 32
62 2 24 33 34
63 2 32 33 34
64 1 3 34 33
65 1 3 34 35
66 1 33 34 35
67 2 4 5 6
68 2 4 5 36
69 2 6 5 36
70 2 6 7 8
71 2 6 7 38
72 2 8 7 38
73 1 1 10 9
74 1 1 10 19
75 1 9 10 19
76 1 17 18 19
77 1 17 18 27
78 1 19 18 27
79 2 10 19 18
80 2 10 19 20
81 2 18 19 20
82 1 11 20 19
83 1 11 20 29
84 1 19 20 29
85 1 25 26 27
86 1 25 26 35
87 1 27 26 35
88 2 18 27 26
89 2 18 27 28
90 2 26 27 28
91 1 27 28 29
92 1 27 28 37
93 1 29 28 37
94 2 20 29 28
95 2 20 29 30
96 2 28 29 30
97 2 26 35 34
98 2 26 35 36
99 2 34 35 36
100 1 5 36 35
101 1 5 36 37
102 1 35 36 37
103 2 28 37 36
104 2 28 37 38
105 2 36 37 38
106 1 7 38 37
107 1 7 38 39
108 1 37 38 39
109 2 8 9 10
110 2 8 9 40
111 2 10 9 40
112 1 21 30 29
113 1 21 30 39
114 1 29 30 39
115 2 30 39 38
116 2 30 39 40
117 2 38 39 40
118 1 9 40 31
119 1 9 40 39
120 1 31 40 39
