LAMMPS (10 Sep 2025)
# SimuGlue hBN Template
units           metal
atom_style      full

# Styles MUST be defined before read_data for molecular systems
pair_style      zero 10.0
bond_style      morse
angle_style     quartic
dihedral_style harmonic

# Simulation variables
variable etol equal 0.0
variable ftol equal 
The 'box' command has been removed and will be ignored

Reading data file ...
  triclinic box = (0 0 0) to (18.230787 8.7153879 6.661) with tilt (7.2961557 0 0)
WARNING: Triclinic box skew is large. LAMMPS will run inefficiently. (../domain.cpp:221)
  1 by 1 by 1 MPI processor grid
  reading atoms ...
  40 atoms
  scanning bonds ...
  3 = max bonds/atom
  scanning angles ...
  3 = max angles/atom
  triclinic box = (0 0 0) to (18.230787 8.7153879 6.661) with tilt (7.2961557 0 0)
WARNING: Triclinic box skew is large. LAMMPS will run inefficiently. (../domain.cpp:221)
  1 by 1 by 1 MPI processor grid
  reading bonds ...
  60 bonds
  reading angles ...
  120 angles
Finding 1-2 1-3 1-4 neighbors ...
  special bond factors lj:    0        0        0       
  special bond factors coul:  0        0        0       
     3 = max # of 1-2 neighbors
     6 = max # of 1-3 neighbors
    18 = max # of 1-4 neighbors
    18 = max # of special neighbors
  special bonds CPU = 0.000 seconds
  read_data CPU = 0.006 seconds
Generated 0 of 1 mixed pair_coeff terms from geometric mixing rule
Neighbor list info ...
  update: every = 1 steps, delay = 0 steps, check = yes
  max neighbors/atom: 2000, page size: 100000
  master list distance cutoff = 11
  ghost atom cutoff = 11
  1 neighbor lists, perpetual/occasional/extra = 1 0 0
  (1) pair zero, perpetual
      attributes: half, newton on
      pair build: half/nsq/newton/tri
      stencil: none
      bin: none
Setting up cg style minimization ...
  Unit style    : metal
  Current step  : 0
WARNING: Energy due to 3 extra global DOFs will be included in minimizer energies
 (../min.cpp:222)
WARNING: Inconsistent image flags
For more information see https://docs.lammps.org/err0027 (../domain.cpp:1052)
WARNING: Bond/angle/dihedral extent > half of periodic box length (../domain.cpp:1174)
Per MPI rank memory allocation (min/avg/max) = 9.382 | 9.382 | 9.382 Mbytes
   Step          Temp          PotEng         Press           Pxx            Pyy            Pzz            Pxy            Pxz            Pyz             Lx             Ly             Lz           Volume    
         0   0              94.529801     -189319.72     -572937.79      4978.6272      0              321.28652      0              0              18.230787      8.7153879      6.661          1058.3555    
         1   0              94.529402     -189373.59     -572848.43      4727.6412      0              278.35802      0              0              18.230787      8.7162594      6.661          1058.4614    
         2   0              94.529017     -189426.86     -572758.72      4478.1414      0              235.53949      0              0              18.230787      8.717131       6.661          1058.5672    
         3   0              94.528645     -189479.46     -572668.63      4230.26        0              192.84401      0              0              18.230787      8.7180025      6.661          1058.673     
         4   0              94.528285     -189531.32     -572578.12      3984.1499      0              150.28673      0              0              18.230787      8.718874       6.661          1058.7789    
         5   0              94.527936     -189582.38     -572487.14      3739.9892      0              107.88543      0              0              18.230787      8.7197456      6.661          1058.8847    
         6   0              94.527596     -189632.55     -572395.63      3497.9869      0              65.66106       0              0              18.230787      8.7206171      6.661          1058.9905    
         7   0              94.527266     -189681.71     -572303.52      3258.3896      0              23.638508      0              0              18.230787      8.7214887      6.661          1059.0964    
         8   0              94.526942     -189729.74     -572210.72      3021.4914      0             -18.152358      0              0              18.230787      8.7223602      6.661          1059.2022    
         9   0              94.526624     -189776.5      -572117.15      2787.6456      0             -59.675385      0              0              18.230787      8.7232317      6.661          1059.308     
        10   0              94.526309     -189821.8      -572022.68      2557.2809      0             -100.88635      0              0              18.230787      8.7241033      6.661          1059.4139    
        11   0              94.525995     -189865.41     -571927.17      2330.9223      0             -141.73054      0              0              18.230787      8.7249748      6.661          1059.5197    
        12   0              94.525678     -189907.07     -571830.42      2109.2201      0             -182.13951      0              0              18.230787      8.7258464      6.661          1059.6255    
        13   0              94.525355     -189946.41     -571732.22      1892.9881      0             -222.02648      0              0              18.230787      8.7267179      6.661          1059.7314    
        14   0              94.52502      -189983.01     -571632.27      1683.2565      0             -261.28005      0              0              18.230787      8.7275894      6.661          1059.8372    
        15   0              94.524669     -190016.29     -571530.22      1481.3423      0             -299.75536      0              0              18.230787      8.728461       6.661          1059.9431    
        16   0              94.524292     -190045.54     -571425.57      1288.9421      0             -337.26188      0              0              18.230787      8.7293325      6.661          1060.0489    
        17   0              94.523879     -190069.83     -571317.73      1108.2481      0             -373.54698      0              0              18.230787      8.7302041      6.661          1060.1547    
        18   0              94.523419     -190087.95     -571205.91      942.07002      0             -408.27569      0              0              18.230787      8.7310756      6.661          1060.2606    
        19   0              94.522897     -190098.41     -571089.13      793.9036       0             -441.01088      0              0              18.230787      8.7319471      6.661          1060.3664    
        20   0              94.522294     -190099.49     -570966.25      667.77839      0             -471.20938      0              0              18.230787      8.7328187      6.661          1060.4722    
        21   0              94.521596     -190089.55     -570836.2       567.53896      0             -498.27184      0              0              18.230787      8.7336902      6.661          1060.5781    
        22   0              94.520796     -190067.75     -570698.41      495.16223      0             -521.70285      0              0              18.230787      8.7345617      6.661          1060.6839    
        23   0              94.519906     -190034.97     -570553.43      448.51886      0             -541.37379      0              0              18.230787      8.7354333      6.661          1060.7897    
        24   0              94.518955     -189994.07     -570403.11      420.89961      0             -557.66482      0              0              18.230787      8.7363048      6.661          1060.8956    
        25   0              94.51798      -189948.52     -570249.7       404.14066      0             -571.22338      0              0              18.230787      8.7371764      6.661          1061.0014    
        26   0              94.517004     -189900.85     -570094.84      392.29393      0             -582.57151      0              0              18.230787      8.7380479      6.661          1061.1072    
        27   0              94.516039     -189852.35     -569939.37      382.32834      0             -591.97115      0              0              18.230787      8.7389194      6.661661          1060.5781    
        22   0              94.520796     -190067.75     -570698.41      495.16223      0             -521.70285      0              0              18.230787      8.7345617      6.661          1060.6839    
        23   0              94.519906     -190034.97     -570573      363.89655      0             -605.1534       0              0              18.230787      8.7406625      6.661          1061.4248    
        30   0              94.51325      -189705.63     -569471.72      354.84415      0             -608.87852      0              0              18.230787      8.7415341      6.661          1061.5306    
        31   0              94.512356     -189656.6      -569315.61      345.80776      0             -610.61278      0              0              18.230787      8.7424056      6.661          1061.6364    
        32   0              94.511479     -189607.54     -569159.39      336.77455      0             -610.28313      0              0              18.230787      8.7432771      6.661          1061.7423    
        33   0              94.51062      -189558.44     -569003.06      327.74105      0             -607.81012      0              0              18.230787      8.7441487      6.661          1061.8481    
        34   0              94.509778     -189509.31     -568846.63      318.70637      0             -603.10833      0              0              18.230787      8.7450202      6.661          1061.9539    
        35   0              94.508953     -189460.14     -568690.08      309.67031      0             -596.08602      0              0              18.230787      8.7458918      6.661          1062.0598    
        36   0              94.508144     -189410.93     -568533.42      300.63281      0             -586.64468      0              0              18.230787      8.7467633      6.661          1062.1656    
        37   0              94.507351     -189361.68     -568376.64      291.59384      0             -574.67819      0              0              18.230787      8.7476348      6.661          1062.2714    
        38   0              94.506573     -189312.39     -568219.74      282.55337      0             -560.07211      0              0              18.230787      8.7485064      6.661          1062.3773    
        39   0              94.505809     -189263.06     -568062.71      273.51139      0             -542.70266      0              0              18.230787      8.7493779      6.661          1062.4831    
        40   0              94.505061     -189213.69     -567905.54      264.46788      0             -522.43566      0              0              18.230787      8.7502494      6.661          1062.5889    
        41   0              94.504326     -189164.27     -567748.24      255.4228       0             -499.12527      0              0              18.230787      8.751121       6.661          1062.6948    
        42   0              94.503605     -189114.81     -567590.79      246.37613      0             -472.61252      0              0              18.230787      8.7519925      6.661          1062.8006    
        43   0              94.502897     -189065.29     -567433.2       237.32785      0             -442.72361      0              0              18.230787      8.7528641      6.661          1062.9065    
        44   0              94.502201     -189015.72     -567275.44      228.27793      0             -409.26787      0              0              18.230787      8.7537356      6.661          1063.0123    
        45   0              94.501517     -188966.1      -567117.53      219.22634      0             -372.03548      0              0              18.230787      8.7546071      6.661          1063.1181    
        46   0              94.500844     -188916.42     -566959.44      210.17305      0             -330.79456      0              0              18.230787      8.7554787      6.661          1063.224     
        47   0              94.500181     -188866.68     -566801.17      201.11804      0             -285.28791      0              0              18.230787      8.7563502      6.661          1063.3298    
        48   0              94.499528     -188816.88     -566642.71      192.06126      0             -235.2289       0              0              18.230787      8.7572218      6.661          1063.4356    
        49   0              94.498883     -188767.02     -566484.05      183.00269      0             -180.2966       0              0              18.230787      8.7580933      6.661          1063.5415    
        50   0              94.498247     -188717.08     -566325.18      173.94229      0             -120.12975      0              0              18.230787      8.7589648      6.661          1063.6473    
        51   0              94.497617     -188667.07     -566166.08      164.88002      0             -54.319351      0              0              18.230787      8.7598364      6.661          1063.7531    
        52   0              94.496994     -188616.97     -566006.73      155.81585      0              17.600618      0              0              18.230787      8.7607079      6.661          1063.859     
        53   0              94.496375     -188566.79     -565847.13      146.74973      0              96.16495       0              0              18.230787      8.7615794      6.661          1063.9648    
        54   0              94.49576      -188516.52     -565687.25      137.68163      0              181.99221      0              0              18.230787      8.762451       6.661          1064.0706    
        55   0              94.495147     -188466.15     -565527.06      128.61151      0              275.80427      0              0              18.230787      8.7633225      6.661          1064.1765    
        56   0              94.494535     -188415.67     -565366.54      119.53931      0              378.452        0              0              18.230787      8.7641941      6.661          1064.2823    
        57   0              94.493922     -188365.06     -565205.65      110.46501      0              490.94992      0              0              18.230787      8.7650656      6.661          1064.3881    
        58   0              94.493306     -188314.32     -565044.36      101.38855      0              614.52369      0              0              18.230787      8.7659371      6.661          1064.494     
        59   0              94.492685     -188263.44     -564882.62      92.309896      0              750.67685      0              0              18.230787      8.7668087      6.661          1064.5998    
        60   0              94.492057     -188212.38     -564720.36      83.22902       0              901.28733      0              0              18.230787      8.7676802      6.661          1064.7057    
        61   0              94.491418     -188161.12     -564557.51      74.145895      0              1068.7517      0              0              18.230787      8.7685518      6.661          1064.8115    
        62   0              94.490766     -188109.64     -564393.98      65.060516      0              1256.2095      0              0              18.230787      8.7694233      6.661          1064.9173    
        63   0              94.490096     -188057.88     -564229.62      55.972909      0              1467.9092      0              0              18.230787      8.7702948      6.661          1065.0232    
        64   0              94.489402     -188005.79     -564064.25      46.883165      0              1709.8435      0              0              18.230787      8.7711664      6.661          1065.129     
        65   0              94.488678     -187953.27     -563897.6       37.79149       0              1990.9416      0              0              18.230787      8.7720379      6.661          1065.2348    
        66   0              94.487915     -187900.17     -563729.2       28.698346      0              2325.5601      0              0              18.230787      8.7729095      6.661          1065.3407    
        67   0              94.4871       -187846.23     -563558.28      19.604761      0                 1068.7517      0              0              18.230787      8.7685518      6.661          1064.8115    
        62   0              94.490766     -188109.64     -564393.98      65.060516      0              1256.2095      0              0              18.230787      8.7694233      6.6         1065.5523    
        69   0              94.485215     -187732.25     -563198.16      1.4294769      0              4152.1447      0              0              18.230787      8.7755241      6.661          1065.6582    
        70   0              94.484641     -187700.85     -563101.39     -1.1526448      0              5576.4548      0              0              18.230787      8.7758188      6.661          1065.694     
        71   0              94.484641     -187700.85     -563101.39     -1.1526448      0              5576.4548      0              0              18.230787      8.7758188      6.661          1065.694     
WARNING: Bond/angle/dihedral extent > half of periodic box length (../domain.cpp:1174)
Loop time of 0.00590872 on 1 procs for 71 steps with 40 atoms

100.0% CPU use with 1 MPI tasks x no OpenMP threads

Minimization stats:
  Stopping criterion = linesearch alpha is zero
  Energy initial, next-to-last, final = 
      94.5298005784467   94.4846407989494   94.4846407989494
  Force two-norm initial, final = 3.5793306 0.0063990116
  Force max component initial, final = 3.2887498 0.001003864
  Final line search alpha, max atom move = 0.00025695498 2.5794785e-07
  Iterations, force evaluations = 71 90

MPI task timing breakdown:
Section |  min time  |  avg time  |  max time  |%varavg| %total
---------------------------------------------------------------
Pair    | 0.00067753 | 0.00067753 | 0.00067753 |   0.0 | 11.47
Bond    | 0.0015098  | 0.0015098  | 0.0015098  |   0.0 | 25.55
Neigh   | 0          | 0          | 0          |   0.0 |  0.00
Comm    | 0.00067516 | 0.00067516 | 0.00067516 |   0.0 | 11.43
Output  | 0.00073926 | 0.00073926 | 0.00073926 |   0.0 | 12.51
Modify  | 0          | 0          | 0          |   0.0 |  0.00
Other   |            | 0.002307   |            |       | 39.04

Nlocal:             40 ave          40 max          40 min
Histogram: 1 0 0 0 0 0 0 0 0 0
Nghost:           1408 ave        1408 max        1408 min
Histogram: 1 0 0 0 0 0 0 0 0 0
Neighs:           3980 ave        3980 max        3980 min
Histogram: 1 0 0 0 0 0 0 0 0 0

Total # of neighbors = 3980
Ave neighs/atom = 99.5
Ave special neighs/atom = 18
Neighbor list builds = 0
Dangerous builds = 0
{"pxx":-563101.38722659519408, "pyy":-1.1526447745823606983, "pzz":0, "pyz":0, "pxz":0, "pxy":5576.4547945005597285, "pe":94.48464079894941392,"lx":18.230787374500021514, "ly":8.7758187838964314409, "lz":6.6609999999999995879, "xy":7.3467459377489685579, "xz":0, "yz":0 }
System init for write_data ...
Generated 0 of 1 mixed pair_coeff terms from geometric mixing rule
Total wall time: 0:00:00
----------
Pair    | 0.00067753 | 0.00067753 | 0.00067753 |   0.0 | 11.47
Bond    | 0.0015098  | 0.0015098  | 0.0015098  |   0.0 | 25.55
Neigh   | 0          | 0          | 0          |   0.0 |  0.00
Comm    | 0.00067516 | 0.00067516 | 0.00067516 |   0.0 | 11.43
Output  | 0.00073926 | 0.00073926 | 0.00073926 |   0.0 | 12.51
Modify  | 0          | 0          | 0          |   0.0 |  0.00
Other   |            | 0.002307   |            |       | 39.04

Nlocal:             40 ave          40 max          40 min
Histogram: 1 0 0 0 0 0 0 0 0 0
Nghost:           1408 ave        1408 max        1408 min
Histogram: 1 0 0 0 0 0 0 0 0 0
Neighs:           3980 ave        3980 max        3980 min
Histogram: 1 0 0 0 0 0 0 0 0 0

Total # of neighbors = 3980
Ave neighs/atom = 99.5
Ave special neighs/atom = 18
Neighbor list builds = 0
Dangerous builds = 0
print '{"pxx":$(pxx), "pyy":$(pyy), "pzz":$(pzz), "pyz":$(pyz), "pxz":$(pxz), "pxy":$(pxy), "pe":$(pe),"lx":$(lx), "ly":$(ly), "lz":$(lz), "xy":$(xy), "xz":$(xz), "yz":$(yz) }' file thermo.json
{"pxx":-563101.38722659519408, "pyy":-1.1526447745823606983, "pzz":0, "pyz":0, "pxz":0, "pxy":5576.4547945005597285, "pe":94.48464079894941392,"lx":18.230787374500021514, "ly":8.7758187838964314409, "lz":6.6609999999999995879, "xy":7.3467459377489685579, "xz":0, "yz":0 }
write_data final_str.data nocoeff
System init for write_data ...
Generated 0 of 1 mixed pair_coeff terms from geometric mixing rule
Total wall time: 0:00:00
