LAMMPS (10 Sep 2025)
# SimuGlue hBN Template
units           metal
atom_style      full

# Styles MUST be defined before read_data for molecular systems
pair_style      zero 10.0
bond_style      morse
angle_style     quartic
dihedral_style harmonic

# Simulation variables
variable etol equal 0.0
variable ftol equal
The 'box' command has been removed and will be ignored

Reading data file ...
  triclinic box = (0 0 0) to (13.293601 8.6295035 6.661) with tilt (5.2678134 0 0)
WARNING: Triclinic box skew is large. LAMMPS will run inefficiently. (../domain.cpp:221)
  1 by 1 by 1 MPI processor grid
  reading atoms ...
  40 atoms
  scanning bonds ...
  3 = max bonds/atom
  scanning angles ...
  3 = max angles/atom
  triclinic box = (0 0 0) to (13.293601 8.6295035 6.661) with tilt (5.2678134 0 0)
WARNING: Triclinic box skew is large. LAMMPS will run inefficiently. (../domain.cpp:221)
  1 by 1 by 1 MPI processor grid
  reading bonds ...
  60 bonds
  reading angles ...
  120 angles
Finding 1-2 1-3 1-4 neighbors ...
  special bond factors lj:    0        0        0       
  special bond factors coul:  0        0        0       
     3 = max # of 1-2 neighbors
     6 = max # of 1-3 neighbors
    18 = max # of 1-4 neighbors
    18 = max # of special neighbors
  special bonds CPU = 0.000 seconds
  read_data CPU = 0.006 seconds
Generated 0 of 1 mixed pair_coeff terms from geometric mixing rule
Neighbor list info ...
  update: every = 1 steps, delay = 0 steps, check = yes
  max neighbors/atom: 2000, page size: 100000
  master list distance cutoff = 11
  ghost atom cutoff = 11
  1 neighbor lists, perpetual/occasional/extra = 1 0 0
  (1) pair zero, perpetual
      attributes: half, newton on
      pair build: half/nsq/newton/tri
      stencil: none
      bin: none
Setting up cg style minimization ...
  Unit style    : metal
  Current step  : 0
WARNING: Energy due to 3 extra global DOFs will be included in minimizer energies
 (../min.cpp:222)
WARNING: Inconsistent image flags
For more information see https://docs.lammps.org/err0027 (../domain.cpp:1052)
Per MPI rank memory allocation (min/avg/max) = 9.393 | 9.393 | 9.393 Mbytes
   Step          Temp          PotEng         Press           Pxx            Pyy            Pzz            Pxy            Pxz            Pyz             Lx             Ly             Lz           Volume    
         0   0              2.7861607     -74026.004     -212285.21     -9792.8039      0              7938.7131      0              0              13.293601      8.6295035      6.661          764.13108    
         1   0              2.785808      -73882.273     -212248.51     -9398.3126      0              8030.6681      0              0              13.293601      8.6286405      6.661          764.05467    
         2   0              2.7854702     -73738.609     -212211.24     -9004.5845      0              8122.6485      0              0              13.293601      8.6277776      6.661          763.97826    
         3   0              2.7851468     -73595.026     -212173.37     -8611.7053      0              8214.6554      0              0              13.293601      8.6269146      6.661          763.90184    
         4   0              2.784837      -73451.539     -212134.85     -8219.7712      0              8306.6904      0              0              13.293601      8.6260517      6.661          763.82543    
         5   0              2.7845401     -73308.167     -212095.61     -7828.8912      0              8398.7548      0              0              13.293601      8.6251887      6.661          763.74902    
         6   0              2.7842554     -73164.931     -212055.6      -7439.1894      0              8490.8506      0              0              13.293601      8.6243258      6.661          763.6726     
         7   0              2.7839819     -73021.852     -212014.75     -7050.8076      0              8582.9797      0              0              13.293601      8.6234628      6.661          763.59619    
         8   0              2.7837186     -72878.959     -211972.97     -6663.9091      0              8675.1444      0              0              13.293601      8.6225999      6.661          763.51978    
         9   0              2.7834641     -72736.282     -211930.16     -6278.6828      0              8767.3475      0              0              13.293601      8.6217369      6.661          763.44337    
        10   0              2.7832172     -72593.857     -211886.22     -5895.3491      0              8859.5918      0              0              13.293601      8.620874       6.661          763.36695    
        11   0              2.7829761     -72451.728     -211841.02     -5514.1672      0              8951.881       0              0              13.293601      8.620011       6.661          763.29054    
        12   0              2.7827389     -72309.943     -211794.38     -5135.444       0              9044.2193      0              0              13.293601      8.6191481      6.661          763.21413    
        13   0              2.7825032     -72168.563     -211746.14     -4759.5467      0              9136.6116      0              0              13.293601      8.6182851      6.661          763.13771    
        14   0              2.7822664     -72027.662     -211696.07     -4386.919       0              9229.0638      0              0              13.293601      8.6174222      6.661          763.0613     
        15   0              2.782025      -71887.327     -211643.88     -4018.1033      0              9321.5829      0              0              13.293601      8.6165592      6.661          762.98489    
        16   0              2.781775      -71747.668     -211589.23     -3653.7705      0              9414.1777      0              0              13.293601      8.6156963      6.661          762.90847    
        17   0              2.7815113     -71608.822     -211531.7      -3294.7622      0              9506.8589      0              0              13.293601      8.6148333      6.661          762.83206    
        18   0              2.7812274     -71470.964     -211470.74     -2942.1506      0              9599.6399      0              0              13.293601      8.6139704      6.661          762.75565    
        19   0              2.7809152     -71334.321     -211405.64     -2597.3238      0              9692.5377      0              0              13.293601      8.6131074      6.661          762.67923    
        20   0              2.7805641     -71199.19      -211335.46     -2262.1125      0              9785.5743      0              0              13.293601      8.6122445      6.661          762.60282    
        21   0              2.7801601     -71065.971     -211258.94     -1938.9765      0              9878.7787      0              0              13.293601      8.6113815      6.661          762.52641    
        22   0              2.7796846     -70935.209     -211174.34     -1631.2828      0              9972.1893      0              0              13.293601      8.6105186      6.661          762.44999    
        23   0              2.7791123     -70807.663     -211079.28     -1343.7088      0              10065.857      0              0              13.293601      8.6096556      6.661          762.37358    
        24   0              2.7784095     -70684.386     -210970.38     -1082.7764      0              10159.851      0              0              13.293601      8.6087927      6.661          762.29717    
        25   0              2.7775332     -70566.804     -210843.07     -857.3428       0              10254.257      0              0              13.293601      8.6079297      6.661          762.22076    
        26   0              2.7764364     -70456.647     -210691.74     -678.20571      0              10349.165      0              0              13.293601      8.6070668      6.661          762.14434    
        27   0              2.7750937     -70355.337     -210511.65     -554.35893      0              10444.613      0              0              13.293601      8.6062038      6.661          762.06793    
        28   0              2.7735525     -70262.411     -2103031174.34     -1631.2828      0              9972.1893      0              0              13.293601      8.6105186      6.661          762.44999    
        23   0              2.7791123     -70807.663     -211079.28     -1343.7088      0              10065.857      0              0              93601      8.6044779      6.661          761.9151     
        30   0              2.7704144     -70088.153     -209848.28     -416.17709      0              10732.217      0              0              13.293601      8.603615       6.661          761.83869    
        31   0              2.7689903     -70001.819     -209616.19     -389.26217      0              10827.671      0              0              13.293601      8.602752       6.661          761.76228    
        32   0              2.7676848     -69915.318     -209383.53     -362.42842      0              10922.759      0              0              13.293601      8.6018891      6.661          761.68586    
        33   0              2.7664982     -69828.641     -209150.32     -335.59809      0              11017.445      0              0              13.293601      8.6010261      6.661          761.60945    
        34   0              2.7654304     -69741.79      -208916.6      -308.77301      0              11111.684      0              0              13.293601      8.6001632      6.661          761.53304    
        35   0              2.7644811     -69654.767     -208682.35     -281.9529       0              11205.426      0              0              13.293601      8.5993002      6.661          761.45662    
        36   0              2.7636503     -69567.577     -208447.59     -255.13774      0              11298.611      0              0              13.293601      8.5984373      6.661          761.38021    
        37   0              2.7629378     -69480.223     -208212.34     -228.32746      0              11391.168      0              0              13.293601      8.5975743      6.661          761.3038     
        38   0              2.7623435     -69392.71      -207976.61     -201.52203      0              11483.01       0              0              13.293601      8.5967114      6.661          761.22738    
        39   0              2.7618673     -69305.042     -207740.41     -174.72142      0              11574.026      0              0              13.293601      8.5958484      6.661          761.15097    
        40   0              2.761509      -69217.228     -207503.76     -147.92563      0              11664.077      0              0              13.293601      8.5949855      6.661          761.07456    
        41   0              2.761374      -69173.273     -207385.3      -134.5129       0              11708.504      0              0              13.293601      8.594554       6.661          761.03635    
        42   0              2.7613449     -69162.281     -207355.68     -131.16336      0              11719.528      0              0              13.293601      8.5944461      6.661          761.0268     
        43   0              2.7613449     -69162.281     -207355.68     -131.16336      0              11719.528      0              0              13.293601      8.5944461      6.661          761.0268     
Loop time of 0.0046337 on 1 procs for 43 steps with 40 atoms

96.9% CPU use with 1 MPI tasks x no OpenMP threads

Minimization stats:
  Stopping criterion = linesearch alpha is zero
  Energy initial, next-to-last, final = 
      2.78616068533491   2.76134485974024   2.76134485974024
  Force two-norm initial, final = 5.2681641 0.59561229
  Force max component initial, final = 4.6705128 0.093198708
  Final line search alpha, max atom move = 2.4392146e-08 2.2733165e-09
  Iterations, force evaluations = 43 63

MPI task timing breakdown:
Section |  min time  |  avg time  |  max time  |%varavg| %total
---------------------------------------------------------------
Pair    | 0.00057754 | 0.00057754 | 0.00057754 |   0.0 | 12.46
Bond    | 0.0011189  | 0.0011189  | 0.0011189  |   0.0 | 24.15
Neigh   | 0          | 0          | 0          |   0.0 |  0.00
Comm    | 0.00057174 | 0.00057174 | 0.00057174 |   0.0 | 12.34
Output  | 0.00045174 | 0.00045174 | 0.00045174 |   0.0 |  9.75
Modify  | 0          | 0          | 0          |   0.0 |  0.00
Other   |            | 0.001914   |            |       | 41.30

Nlocal:             40 ave          40 max          40 min
Histogram: 1 0 0 0 0 0 0 0 0 0
Nghost:           1640 ave        1640 max        1640 min
Histogram: 1 0 0 0 0 0 0 0 0 0
Neighs:           5520 ave        5520 max        5520 min
Histogram: 1 0 0 0 0 0 0 0 0 0

Total # of neighbors = 5520
Ave neighs/atom = 138
Ave special neighs/atom = 18
Neighbor list builds = 0
Dangerous builds = 0
{"pxx":-207355.67852324989508, "pyy":-131.16336290437962475, "pzz":0, "pyz":0, "pxz":0, "pxy":11719.527542458345124, "pe":2.7613448597402401319,"lx":13.293600525447635263, "ly":8.5944461271702863314, "lz":6.6609999999999995879, "xy":5.2464128921376813608, "xz":0, "yz":0 }
System init for write_data ...
Generated 0 of 1 mixed pair_coeff terms from geometric mixing rule
Total wall time: 0:00:00
-----------
Pair    | 0.00057754 | 0.00057754 | 0.00057754 |   0.0 | 12.46
Bond    | 0.0011189  | 0.0011189  | 0.0011189  |   0.0 | 24.15
Neigh   | 0          | 0          | 0          |   0.0 |  0.00
Comm    | 0.00057174 | 0.00057174 | 0.00057174 |   0.0 | 12.34
Output  | 0.00045174 | 0.00045174 | 0.00045174 |   0.0 |  9.75
Modify  | 0          | 0          | 0          |   0.0 |  0.00
Other   |            | 0.001914   |            |       | 41.30

Nlocal:             40 ave          40 max          40 min
Histogram: 1 0 0 0 0 0 0 0 0 0
Nghost:           1640 ave        1640 max        1640 min
Histogram: 1 0 0 0 0 0 0 0 0 0
Neighs:           5520 ave        5520 max        5520 min
Histogram: 1 0 0 0 0 0 0 0 0 0

Total # of neighbors = 5520
Ave neighs/atom = 138
Ave special neighs/atom = 18
Neighbor list builds = 0
Dangerous builds = 0
print '{"pxx":$(pxx), "pyy":$(pyy), "pzz":$(pzz), "pyz":$(pyz), "pxz":$(pxz), "pxy":$(pxy), "pe":$(pe),"lx":$(lx), "ly":$(ly), "lz":$(lz), "xy":$(xy), "xz":$(xz), "yz":$(yz) }' file thermo.json
{"pxx":-207355.67852324989508, "pyy":-131.16336290437962475, "pzz":0, "pyz":0, "pxz":0, "pxy":11719.527542458345124, "pe":2.7613448597402401319,"lx":13.293600525447635263, "ly":8.5944461271702863314, "lz":6.6609999999999995879, "xy":5.2464128921376813608, "xz":0, "yz":0 }
write_data final_str.data nocoeff
System init for write_data ...
Generated 0 of 1 mixed pair_coeff terms from geometric mixing rule
Total wall time: 0:00:00
