 &control
    calculation = 'scf'
    restart_mode='from_scratch',
    prefix='myprefix',
    tstress = .true.
    tprnfor = .true.
    etot_conv_thr=0.1, 
    forc_conv_thr=0.2
    pseudo_dir = '/psuedo_path/',
    outdir='/outdir_path/'
 /
 &system
    ibrav=  0, A=2, nat=  3, ntyp= 3,
    ecutwfc = 100.0, ecutrho=200.0
 /
 &electrons
    diagonalization='david'
    electron_maxstep = 100
    mixing_mode = 'plain'
    mixing_beta = 0.7
    conv_thr = 1d-10
 /
K_POINTS automatic
24 24 1 0 0 0
ATOMIC_SPECIES
 Mo  1.0     Mo.UPF
 S   2.0     S .UPF
 Se  3.0     Se.UPF
