LAMMPS (10 Sep 2025)
# SimuGlue hBN Template
units           metal
atom_style      full

# Styles MUST be defined before read_data for molecular systems
pair_style      zero 10.0
bond_style      morse
angle_style     quartic
dihedral_style harmonic

# Simulation variables
variable etol equal 0.0
variable ftol equal
The 'box' command has been removed and will be ignored

Reading data file ...
  triclinic box = (0 0 0) to (12.808723 8.7108 6.661) with tilt (5.1234891 0 0)
WARNING: Triclinic box skew is large. LAMMPS will run inefficiently. (../domain.cpp:221)
  1 by 1 by 1 MPI processor grid
  reading atoms ...
  40 atoms
  scanning bonds ...
  3 = max bonds/atom
  scanning angles ...
  3 = max angles/atom
  triclinic box = (0 0 0) to (12.808723 8.7108 6.661) with tilt (5.1234891 0 0)
WARNING: Triclinic box skew is large. LAMMPS will run inefficiently. (../domain.cpp:221)
  1 by 1 by 1 MPI processor grid
  reading bonds ...
  60 bonds
  reading angles ...
  120 angles
Finding 1-2 1-3 1-4 neighbors ...
  special bond factors lj:    0        0        0       
  special bond factors coul:  0        0        0       
     3 = max # of 1-2 neighbors
     6 = max # of 1-3 neighbors
    18 = max # of 1-4 neighbors
    18 = max # of special neighbors
  special bonds CPU = 0.000 seconds
  read_data CPU = 0.005 seconds
Generated 0 of 1 mixed pair_coeff terms from geometric mixing rule
Neighbor list info ...
  update: every = 1 steps, delay = 0 steps, check = yes
  max neighbors/atom: 2000, page size: 100000
  master list distance cutoff = 11
  ghost atom cutoff = 11
  1 neighbor lists, perpetual/occasional/extra = 1 0 0
  (1) pair zero, perpetual
      attributes: half, newton on
      pair build: half/nsq/newton/tri
      stencil: none
      bin: none
Setting up cg style minimization ...
  Unit style    : metal
  Current step  : 0
WARNING: Energy due to 3 extra global DOFs will be included in minimizer energies
 (../min.cpp:222)
WARNING: Inconsistent image flags
For more information see https://docs.lammps.org/err0027 (../domain.cpp:1052)
Per MPI rank memory allocation (min/avg/max) = 9.393 | 9.393 | 9.393 Mbytes
   Step          Temp          PotEng         Press           Pxx            Pyy            Pzz            Pxy            Pxz            Pyz             Lx             Ly             Lz           Volume    
         0   0              0.35138694    -31463.088     -80910.164     -13479.098      0              0.0013654312   0              0              12.808723      8.7108         6.661          743.19589    
         1   0              0.35065402    -31298.037     -80839.549     -13054.562      0              100.99347      0              0              12.808723      8.7099289      6.661          743.12157    
         2   0              0.34993876    -31132.923     -80768.414     -12630.356      0              201.97207      0              0              12.808723      8.7090578      6.661          743.04725    
         3   0              0.34924082    -30967.749     -80696.729     -12206.518      0              302.93516      0              0              12.808723      8.7081868      6.661          742.97293    
         4   0              0.34855986    -30802.518     -80624.46      -11783.093      0              403.88056      0              0              12.808723      8.7073157      6.661          742.89861    
         5   0              0.34789549    -30637.233     -80551.572     -11360.127      0              504.80585      0              0              12.808723      8.7064446      6.661          742.82429    
         6   0              0.3472473     -30471.899     -80478.023     -10937.674      0              605.70836      0              0              12.808723      8.7055735      6.661          742.74997    
         7   0              0.34661481    -30306.521     -80403.77      -10515.792      0              706.58512      0              0              12.808723      8.7047024      6.661          742.67565    
         8   0              0.34599749    -30141.103     -80328.763     -10094.547      0              807.4328       0              0              12.808723      8.7038314      6.661          742.60133    
         9   0              0.34539478    -29975.652     -80252.946     -9674.0102      0              908.24769      0              0              12.808723      8.7029603      6.661          742.52701    
        10   0              0.34480602    -29810.174     -80176.257     -9254.2639      0              1009.0256      0              0              12.808723      8.7020892      6.661          742.4527     
        11   0              0.34423049    -29644.675     -80098.626     -8835.3997      0              1109.7618      0              0              12.808723      8.7012181      6.661          742.37838    
        12   0              0.34366736    -29479.165     -80019.974     -8417.5213      0              1210.4509      0              0              12.808723      8.700347       6.661          742.30406    
        13   0              0.34311572    -29313.652     -79940.21      -8000.7468      0              1311.0869      0              0              12.808723      8.699476       6.661          742.22974    
        14   0              0.34257449    -29148.147     -79859.231     -7585.2112      0              1411.6626      0              0              12.808723      8.6986049      6.661          742.15542    
        15   0              0.34204249    -28982.663     -79776.918     -7171.0699      0              1512.1699      0              0              12.808723      8.6977338      6.661          742.0811     
        16   0              0.34151831    -28817.212     -79693.133     -6758.5026      0              1612.5993      0              0              12.808723      8.6968627      6.661          742.00678    
        17   0              0.34100034    -28651.812     -79607.716     -6347.7191      0              1712.9398      0              0              12.808723      8.6959916      6.661          741.93246    
        18   0              0.34048669    -28486.481     -79520.477     -5938.9662      0              1813.1782      0              0              12.808723      8.6951206      6.661          741.85814    
        19   0              0.33997516    -28321.242     -79431.19      -5532.5363      0              1913.2989      0              0              12.808723      8.6942495      6.661          741.78382    
        20   0              0.3394631     -28156.123     -79339.588     -5128.7794      0              2013.2832      0              0              12.808723      8.6933784      6.661          741.7095     
        21   0              0.33894735    -27991.155     -79245.345     -4728.119       0              2113.108       0              0              12.808723      8.6925073      6.661          741.63518    
        22   0              0.33842409    -27826.378     -79148.06      -4331.0736      0              2212.7452      0              0              12.808723      8.6916362      6.661          741.56086    
        23   0              0.33788859    -27661.842     -79047.239     -3938.2857      0              2312.1596      0              0              12.808723      8.6907652      6.661          741.48654    
        24   0              0.33733501    -27497.607     -78942.258     -3550.5643      0              2411.3065      0              0              12.808723      8.6898941      6.661          741.41222    
        25   0              0.33675594    -27333.754     -78832.317     -3168.9436      0              2510.1286      0              0              12.808723      8.689023       6.661          741.3379     
        26   0              0.33614187    -27170.382     -78716.376     -2794.7709      0              2608.5502      0              0              12.808723      8.6881519      6.661          741.26358    
        27   0              0.33548037    -27007.628     -78593.046     -2429.8372      0              2706.47        0              0              12.808723      8.6872808      6.661          741.18926    
        28   0              0.33475484    -26845.673     -78460.442         -4331.0736      0              2212.7452      0              0              12.808723      8.6916362      6.661          741.56086    
        23   0              0.33788859    -27661.842     -79047.239     -3938.2857      0              2312.1596      0              0              12.808     8.6855387      6.661          741.04062    
        30   0              0.33301275    -26525.276     -78155.768     -1420.0593      0              2995.5125      0              0              12.808723      8.6846676      6.661          740.9663     
        31   0              0.33192142    -26367.704     -77974.507     -1128.6043      0              3089.2968      0              0              12.808723      8.6837965      6.661          740.89198    
        32   0              0.33060947    -26212.785     -77764.292     -874.06312      0              3180.9271      0              0              12.808723      8.6829254      6.661          740.81766    
        33   0              0.32900489    -26061.487     -77514.516     -669.94339      0              3269.5398      0              0              12.808723      8.6820544      6.661          740.74334    
        34   0              0.32705374    -25914.749     -77214.376     -529.8708       0              3354.1731      0              0              12.808723      8.6811833      6.661          740.66903    
        35   0              0.32481014    -25772.493     -76863.369     -454.11137      0              3434.5265      0              0              12.808723      8.6803122      6.661          740.59471    
        36   0              0.32249523    -25632.667     -76482.277     -415.72322      0              3511.8886      0              0              12.808723      8.6794411      6.661          740.52039    
        37   0              0.32030823    -25493.099     -76094.146     -385.15075      0              3587.8621      0              0              12.808723      8.67857        6.661          740.44607    
        38   0              0.31829597    -25353.233     -75705.035     -354.66354      0              3662.8308      0              0              12.808723      8.677699       6.661          740.37175    
        39   0              0.31645881    -25213.064     -75315.014     -324.17839      0              3736.7069      0              0              12.808723      8.6768279      6.661          740.29743    
        40   0              0.31479664    -25072.596     -74924.083     -293.70388      0              3809.381       0              0              12.808723      8.6759568      6.661          740.22311    
        41   0              0.3133094     -24931.829     -74532.249     -263.23786      0              3880.7232      0              0              12.808723      8.6750857      6.661          740.14879    
        42   0              0.31199703    -24790.767     -74139.519     -232.78082      0              3950.5754      0              0              12.808723      8.6742146      6.661          740.07447    
        43   0              0.31085949    -24649.411     -73745.902     -202.33216      0              4018.741       0              0              12.808723      8.6733436      6.661          740.00015    
        44   0              0.30989676    -24507.766     -73351.406     -171.89196      0              4084.9678      0              0              12.808723      8.6724725      6.661          739.92583    
        45   0              0.30910888    -24365.835     -72956.045     -141.45973      0              4148.9196      0              0              12.808723      8.6716014      6.661          739.85151    
        46   0              0.30849589    -24223.623     -72559.834     -111.03573      0              4210.124       0              0              12.808723      8.6707303      6.661          739.77719    
        47   0              0.30805797    -24081.139     -72162.797     -80.618772      0              4267.8645      0              0              12.808723      8.6698592      6.661          739.70287    
        48   0              0.30779541    -23938.394     -71764.969     -50.212231      0              4320.9119      0              0              12.808723      8.6689882      6.661          739.62855    
        49   0              0.30772991    -23866.941     -71565.833     -34.9894        0              4343.7511      0              0              12.808723      8.6685526      6.661          739.59139    
        50   0              0.30772727    -23862.474     -71553.377     -34.045639      0              4345.0206      0              0              12.808723      8.6685254      6.661          739.58907    
        51   0              0.30772601    -23860.241     -71547.15      -33.572581      0              4345.6507      0              0              12.808723      8.6685118      6.661          739.58791    
        52   0              0.30772601    -23860.241     -71547.15      -33.572581      0              4345.6507      0              0              12.808723      8.6685118      6.661          739.58791    
Loop time of 0.00492937 on 1 procs for 52 steps with 40 atoms

91.2% CPU use with 1 MPI tasks x no OpenMP threads

Minimization stats:
  Stopping criterion = linesearch alpha is zero
  Energy initial, next-to-last, final = 
     0.351386939996102  0.307726013098289  0.307726013098289
  Force two-norm initial, final = 6.8200381 0.17538791
  Force max component initial, final = 6.2525013 0.027011414
  Final line search alpha, max atom move = 3.9192448e-07 1.0586434e-08
  Iterations, force evaluations = 52 78

MPI task timing breakdown:
Section |  min time  |  avg time  |  max time  |%varavg| %total
---------------------------------------------------------------
Pair    | 0.00061114 | 0.00061114 | 0.00061114 |   0.0 | 12.40
Bond    | 0.001178   | 0.001178   | 0.001178   |   0.0 | 23.90
Neigh   | 0          | 0          | 0          |   0.0 |  0.00
Comm    | 0.00060864 | 0.00060864 | 0.00060864 |   0.0 | 12.35
Output  | 0.00050406 | 0.00050406 | 0.00050406 |   0.0 | 10.23
Modify  | 0          | 0          | 0          |   0.0 |  0.00
Other   |            | 0.002028   |            |       | 41.13

Nlocal:             40 ave          40 max          40 min
Histogram: 1 0 0 0 0 0 0 0 0 0
Nghost:           1640 ave        1640 max        1640 min
Histogram: 1 0 0 0 0 0 0 0 0 0
Neighs:           5540 ave        5540 max        5540 min
Histogram: 1 0 0 0 0 0 0 0 0 0

Total # of neighbors = 5540
Ave neighs/atom = 138.5
Ave special neighs/atom = 18
Neighbor list builds = 0
Dangerous builds = 0
{"pxx":-71547.150470815802692, "pyy":-33.572581051146272557, "pzz":0, "pyz":0, "pxz":0, "pxy":4345.6507095522365489, "pe":0.30772601309828861993,"lx":12.808722706583404616, "ly":8.6685117881250111083, "lz":6.6609999999999995879, "xy":5.0986161442275195199, "xz":0, "yz":0 }
System init for write_data ...
Generated 0 of 1 mixed pair_coeff terms from geometric mixing rule
Total wall time: 0:00:00
--------
Pair    | 0.00061114 | 0.00061114 | 0.00061114 |   0.0 | 12.40
Bond    | 0.001178   | 0.001178   | 0.001178   |   0.0 | 23.90
Neigh   | 0          | 0          | 0          |   0.0 |  0.00
Comm    | 0.00060864 | 0.00060864 | 0.00060864 |   0.0 | 12.35
Output  | 0.00050406 | 0.00050406 | 0.00050406 |   0.0 | 10.23
Modify  | 0          | 0          | 0          |   0.0 |  0.00
Other   |            | 0.002028   |            |       | 41.13

Nlocal:             40 ave          40 max          40 min
Histogram: 1 0 0 0 0 0 0 0 0 0
Nghost:           1640 ave        1640 max        1640 min
Histogram: 1 0 0 0 0 0 0 0 0 0
Neighs:           5540 ave        5540 max        5540 min
Histogram: 1 0 0 0 0 0 0 0 0 0

Total # of neighbors = 5540
Ave neighs/atom = 138.5
Ave special neighs/atom = 18
Neighbor list builds = 0
Dangerous builds = 0
print '{"pxx":$(pxx), "pyy":$(pyy), "pzz":$(pzz), "pyz":$(pyz), "pxz":$(pxz), "pxy":$(pxy), "pe":$(pe),"lx":$(lx), "ly":$(ly), "lz":$(lz), "xy":$(xy), "xz":$(xz), "yz":$(yz) }' file thermo.json
{"pxx":-71547.150470815802692, "pyy":-33.572581051146272557, "pzz":0, "pyz":0, "pxz":0, "pxy":4345.6507095522365489, "pe":0.30772601309828861993,"lx":12.808722706583404616, "ly":8.6685117881250111083, "lz":6.6609999999999995879, "xy":5.0986161442275195199, "xz":0, "yz":0 }
write_data final_str.data nocoeff
System init for write_data ...
Generated 0 of 1 mixed pair_coeff terms from geometric mixing rule
Total wall time: 0:00:00
